*Heading
** Job name: circular Model name: Model-1
** Generated by: Abaqus/CAE 2022
*Preprint, echo=NO, model=NO, history=NO, contact=NO
**
** PARTS
**
*Part, name=Part-1
*Node
      1, -0.824999988,  0.129903808,           0.
      2, -0.879903793,  0.075000003,           0.
      3, -0.899999976,           0.,           0.
      4, -0.879903793, -0.075000003,           0.
      5, -0.824999988, -0.129903808,           0.
      6,        -0.75,  0.150000006,           0.
      7,        -0.75, -0.150000006,           0.
      8,         0.75,  0.150000006,           0.
      9,  0.807402492,  0.138581932,           0.
     10,  0.888581932, 0.0574025139,           0.
     11,  0.899999976,           0.,           0.
     12,  0.888581932, -0.0574025139,           0.
     13,  0.807402492, -0.138581932,           0.
     14,         0.75, -0.150000006,           0.
     15, -0.649999976,  0.150000006,           0.
     16, -0.550000012,  0.150000006,           0.
     17, -0.449999988,  0.150000006,           0.
     18, -0.349999994,  0.150000006,           0.
     19,        -0.25,  0.150000006,           0.
     20, -0.150000006,  0.150000006,           0.
     21, -0.0500000007,  0.150000006,           0.
     22, 0.0500000007,  0.150000006,           0.
     23,  0.150000006,  0.150000006,           0.
     24,         0.25,  0.150000006,           0.
     25,  0.349999994,  0.150000006,           0.
     26,  0.449999988,  0.150000006,           0.
     27,  0.550000012,  0.150000006,           0.
     28,  0.649999976,  0.150000006,           0.
     29,  0.856065989,  0.106066018,           0.
     30,  0.856065989, -0.106066018,           0.
     31, -0.649999976, -0.150000006,           0.
     32, -0.550000012, -0.150000006,           0.
     33, -0.449999988, -0.150000006,           0.
     34, -0.349999994, -0.150000006,           0.
     35,        -0.25, -0.150000006,           0.
     36, -0.150000006, -0.150000006,           0.
     37, -0.0500000007, -0.150000006,           0.
     38, 0.0500000007, -0.150000006,           0.
     39,  0.150000006, -0.150000006,           0.
     40,         0.25, -0.150000006,           0.
     41,  0.349999994, -0.150000006,           0.
     42,  0.449999988, -0.150000006,           0.
     43,  0.550000012, -0.150000006,           0.
     44,  0.649999976, -0.150000006,           0.
     45,  0.832925498, -0.0149648422,           0.
     46,  0.784100533, 0.0628456771,           0.
     47,  0.729406416, 0.0743573606,           0.
     48, -0.725353241, -0.0839191377,           0.
     49, -0.802840471, -0.0231915358,           0.
     50, -0.793433845,  0.055117581,           0.
     51,  0.777760208, -0.00484846393,           0.
     52, -0.718149543, 0.0575515591,           0.
     53,  0.779690742, -0.0679016784,           0.
     54,  0.858609617, 0.0387705304,           0.
     55,  0.720747471, -0.0668375567,           0.
     56,  0.652115285, 0.0776163116,           0.
     57, -0.713731468, -0.0208027884,           0.
     58, -0.621186674, 0.0516216531,           0.
     59,  0.621709466, -0.0393298343,           0.
     60, -0.656531751, -0.0975037366,           0.
     61,  -0.51899457, 0.0494230501,           0.
     62, -0.417587906, 0.0494504161,           0.
     63, -0.316909552, 0.0495560504,           0.
     64, -0.216774106, 0.0496912152,           0.
     65, -0.116735026, 0.0497531854,           0.
     66, -0.016591765, 0.0497845225,           0.
     67, 0.0833239034, 0.0493216105,           0.
     68,  0.183342233, 0.0492441319,           0.
     69,  0.283334643,  0.049797222,           0.
     70, -0.384422302, -0.0491131209,           0.
     71, -0.283576399, -0.0490349717,           0.
     72, -0.183385685, -0.0489701368,           0.
     73, -0.0833504274, -0.0489429086,           0.
     74, 0.0166790728, -0.0493756421,           0.
     75,  0.116620295, -0.0496055074,           0.
     76,  0.216718107, -0.0496858284,           0.
     77,  0.316866845, -0.0490500629,           0.
     78, -0.602415204, -0.050688412,           0.
     79,  0.383211523, 0.0513742641,           0.
     80,  0.481736064, 0.0548581183,           0.
     81,  0.572274268, 0.0640596077,           0.
     82, -0.488438696, -0.0494441353,           0.
     83,  0.417243272, -0.0475444123,           0.
     84,  0.518074453, -0.0447730944,           0.
     85,  0.723617315, 0.00201012497,           0.
     86,  0.863923967, 0.00721039157,           0.
     87,  0.820430756, -0.0619703084,           0.
     88, -0.847279072, 0.00760738086,           0.
     89, -0.839612186, 0.0457400791,           0.
     90, -0.784825802, -0.0766975358,           0.
     91,  0.829983056, 0.0493127294,           0.
     92,  0.665597022, 0.0122219762,           0.
     93, -0.824999988,  0.129903808,  0.100000001
     94, -0.879903793,  0.075000003,  0.100000001
     95, -0.899999976,           0.,  0.100000001
     96, -0.879903793, -0.075000003,  0.100000001
     97, -0.824999988, -0.129903808,  0.100000001
     98,        -0.75,  0.150000006,  0.100000001
     99,        -0.75, -0.150000006,  0.100000001
    100,         0.75,  0.150000006,  0.100000001
    101,  0.807402492,  0.138581932,  0.100000001
    102,  0.888581932, 0.0574025139,  0.100000001
    103,  0.899999976,           0.,  0.100000001
    104,  0.888581932, -0.0574025139,  0.100000001
    105,  0.807402492, -0.138581932,  0.100000001
    106,         0.75, -0.150000006,  0.100000001
    107, -0.649999976,  0.150000006,  0.100000001
    108, -0.550000012,  0.150000006,  0.100000001
    109, -0.449999988,  0.150000006,  0.100000001
    110, -0.349999994,  0.150000006,  0.100000001
    111,        -0.25,  0.150000006,  0.100000001
    112, -0.150000006,  0.150000006,  0.100000001
    113, -0.0500000007,  0.150000006,  0.100000001
    114, 0.0500000007,  0.150000006,  0.100000001
    115,  0.150000006,  0.150000006,  0.100000001
    116,         0.25,  0.150000006,  0.100000001
    117,  0.349999994,  0.150000006,  0.100000001
    118,  0.449999988,  0.150000006,  0.100000001
    119,  0.550000012,  0.150000006,  0.100000001
    120,  0.649999976,  0.150000006,  0.100000001
    121,  0.856065989,  0.106066018,  0.100000001
    122,  0.856065989, -0.106066018,  0.100000001
    123, -0.649999976, -0.150000006,  0.100000001
    124, -0.550000012, -0.150000006,  0.100000001
    125, -0.449999988, -0.150000006,  0.100000001
    126, -0.349999994, -0.150000006,  0.100000001
    127,        -0.25, -0.150000006,  0.100000001
    128, -0.150000006, -0.150000006,  0.100000001
    129, -0.0500000007, -0.150000006,  0.100000001
    130, 0.0500000007, -0.150000006,  0.100000001
    131,  0.150000006, -0.150000006,  0.100000001
    132,         0.25, -0.150000006,  0.100000001
    133,  0.349999994, -0.150000006,  0.100000001
    134,  0.449999988, -0.150000006,  0.100000001
    135,  0.550000012, -0.150000006,  0.100000001
    136,  0.649999976, -0.150000006,  0.100000001
    137,  0.832925498, -0.0149648422,  0.100000001
    138,  0.784100533, 0.0628456771,  0.100000001
    139,  0.729406416, 0.0743573606,  0.100000001
    140, -0.725353241, -0.0839191377,  0.100000001
    141, -0.802840471, -0.0231915358,  0.100000001
    142, -0.793433845,  0.055117581,  0.100000001
    143,  0.777760208, -0.00484846393,  0.100000001
    144, -0.718149543, 0.0575515591,  0.100000001
    145,  0.779690742, -0.0679016784,  0.100000001
    146,  0.858609617, 0.0387705304,  0.100000001
    147,  0.720747471, -0.0668375567,  0.100000001
    148,  0.652115285, 0.0776163116,  0.100000001
    149, -0.713731468, -0.0208027884,  0.100000001
    150, -0.621186674, 0.0516216531,  0.100000001
    151,  0.621709466, -0.0393298343,  0.100000001
    152, -0.656531751, -0.0975037366,  0.100000001
    153,  -0.51899457, 0.0494230501,  0.100000001
    154, -0.417587906, 0.0494504161,  0.100000001
    155, -0.316909552, 0.0495560504,  0.100000001
    156, -0.216774106, 0.0496912152,  0.100000001
    157, -0.116735026, 0.0497531854,  0.100000001
    158, -0.016591765, 0.0497845225,  0.100000001
    159, 0.0833239034, 0.0493216105,  0.100000001
    160,  0.183342233, 0.0492441319,  0.100000001
    161,  0.283334643,  0.049797222,  0.100000001
    162, -0.384422302, -0.0491131209,  0.100000001
    163, -0.283576399, -0.0490349717,  0.100000001
    164, -0.183385685, -0.0489701368,  0.100000001
    165, -0.0833504274, -0.0489429086,  0.100000001
    166, 0.0166790728, -0.0493756421,  0.100000001
    167,  0.116620295, -0.0496055074,  0.100000001
    168,  0.216718107, -0.0496858284,  0.100000001
    169,  0.316866845, -0.0490500629,  0.100000001
    170, -0.602415204, -0.050688412,  0.100000001
    171,  0.383211523, 0.0513742641,  0.100000001
    172,  0.481736064, 0.0548581183,  0.100000001
    173,  0.572274268, 0.0640596077,  0.100000001
    174, -0.488438696, -0.0494441353,  0.100000001
    175,  0.417243272, -0.0475444123,  0.100000001
    176,  0.518074453, -0.0447730944,  0.100000001
    177,  0.723617315, 0.00201012497,  0.100000001
    178,  0.863923967, 0.00721039157,  0.100000001
    179,  0.820430756, -0.0619703084,  0.100000001
    180, -0.847279072, 0.00760738086,  0.100000001
    181, -0.839612186, 0.0457400791,  0.100000001
    182, -0.784825802, -0.0766975358,  0.100000001
    183,  0.829983056, 0.0493127294,  0.100000001
    184,  0.665597022, 0.0122219762,  0.100000001
    185, -0.824999988,  0.129903808,  0.200000003
    186, -0.879903793,  0.075000003,  0.200000003
    187, -0.899999976,           0.,  0.200000003
    188, -0.879903793, -0.075000003,  0.200000003
    189, -0.824999988, -0.129903808,  0.200000003
    190,        -0.75,  0.150000006,  0.200000003
    191,        -0.75, -0.150000006,  0.200000003
    192,         0.75,  0.150000006,  0.200000003
    193,  0.807402492,  0.138581932,  0.200000003
    194,  0.888581932, 0.0574025139,  0.200000003
    195,  0.899999976,           0.,  0.200000003
    196,  0.888581932, -0.0574025139,  0.200000003
    197,  0.807402492, -0.138581932,  0.200000003
    198,         0.75, -0.150000006,  0.200000003
    199, -0.649999976,  0.150000006,  0.200000003
    200, -0.550000012,  0.150000006,  0.200000003
    201, -0.449999988,  0.150000006,  0.200000003
    202, -0.349999994,  0.150000006,  0.200000003
    203,        -0.25,  0.150000006,  0.200000003
    204, -0.150000006,  0.150000006,  0.200000003
    205, -0.0500000007,  0.150000006,  0.200000003
    206, 0.0500000007,  0.150000006,  0.200000003
    207,  0.150000006,  0.150000006,  0.200000003
    208,         0.25,  0.150000006,  0.200000003
    209,  0.349999994,  0.150000006,  0.200000003
    210,  0.449999988,  0.150000006,  0.200000003
    211,  0.550000012,  0.150000006,  0.200000003
    212,  0.649999976,  0.150000006,  0.200000003
    213,  0.856065989,  0.106066018,  0.200000003
    214,  0.856065989, -0.106066018,  0.200000003
    215, -0.649999976, -0.150000006,  0.200000003
    216, -0.550000012, -0.150000006,  0.200000003
    217, -0.449999988, -0.150000006,  0.200000003
    218, -0.349999994, -0.150000006,  0.200000003
    219,        -0.25, -0.150000006,  0.200000003
    220, -0.150000006, -0.150000006,  0.200000003
    221, -0.0500000007, -0.150000006,  0.200000003
    222, 0.0500000007, -0.150000006,  0.200000003
    223,  0.150000006, -0.150000006,  0.200000003
    224,         0.25, -0.150000006,  0.200000003
    225,  0.349999994, -0.150000006,  0.200000003
    226,  0.449999988, -0.150000006,  0.200000003
    227,  0.550000012, -0.150000006,  0.200000003
    228,  0.649999976, -0.150000006,  0.200000003
    229,  0.832925498, -0.0149648422,  0.200000003
    230,  0.784100533, 0.0628456771,  0.200000003
    231,  0.729406416, 0.0743573606,  0.200000003
    232, -0.725353241, -0.0839191377,  0.200000003
    233, -0.802840471, -0.0231915358,  0.200000003
    234, -0.793433845,  0.055117581,  0.200000003
    235,  0.777760208, -0.00484846393,  0.200000003
    236, -0.718149543, 0.0575515591,  0.200000003
    237,  0.779690742, -0.0679016784,  0.200000003
    238,  0.858609617, 0.0387705304,  0.200000003
    239,  0.720747471, -0.0668375567,  0.200000003
    240,  0.652115285, 0.0776163116,  0.200000003
    241, -0.713731468, -0.0208027884,  0.200000003
    242, -0.621186674, 0.0516216531,  0.200000003
    243,  0.621709466, -0.0393298343,  0.200000003
    244, -0.656531751, -0.0975037366,  0.200000003
    245,  -0.51899457, 0.0494230501,  0.200000003
    246, -0.417587906, 0.0494504161,  0.200000003
    247, -0.316909552, 0.0495560504,  0.200000003
    248, -0.216774106, 0.0496912152,  0.200000003
    249, -0.116735026, 0.0497531854,  0.200000003
    250, -0.016591765, 0.0497845225,  0.200000003
    251, 0.0833239034, 0.0493216105,  0.200000003
    252,  0.183342233, 0.0492441319,  0.200000003
    253,  0.283334643,  0.049797222,  0.200000003
    254, -0.384422302, -0.0491131209,  0.200000003
    255, -0.283576399, -0.0490349717,  0.200000003
    256, -0.183385685, -0.0489701368,  0.200000003
    257, -0.0833504274, -0.0489429086,  0.200000003
    258, 0.0166790728, -0.0493756421,  0.200000003
    259,  0.116620295, -0.0496055074,  0.200000003
    260,  0.216718107, -0.0496858284,  0.200000003
    261,  0.316866845, -0.0490500629,  0.200000003
    262, -0.602415204, -0.050688412,  0.200000003
    263,  0.383211523, 0.0513742641,  0.200000003
    264,  0.481736064, 0.0548581183,  0.200000003
    265,  0.572274268, 0.0640596077,  0.200000003
    266, -0.488438696, -0.0494441353,  0.200000003
    267,  0.417243272, -0.0475444123,  0.200000003
    268,  0.518074453, -0.0447730944,  0.200000003
    269,  0.723617315, 0.00201012497,  0.200000003
    270,  0.863923967, 0.00721039157,  0.200000003
    271,  0.820430756, -0.0619703084,  0.200000003
    272, -0.847279072, 0.00760738086,  0.200000003
    273, -0.839612186, 0.0457400791,  0.200000003
    274, -0.784825802, -0.0766975358,  0.200000003
    275,  0.829983056, 0.0493127294,  0.200000003
    276,  0.665597022, 0.0122219762,  0.200000003
    277, -0.824999988,  0.129903808,  0.300000012
    278, -0.879903793,  0.075000003,  0.300000012
    279, -0.899999976,           0.,  0.300000012
    280, -0.879903793, -0.075000003,  0.300000012
    281, -0.824999988, -0.129903808,  0.300000012
    282,        -0.75,  0.150000006,  0.300000012
    283,        -0.75, -0.150000006,  0.300000012
    284,         0.75,  0.150000006,  0.300000012
    285,  0.807402492,  0.138581932,  0.300000012
    286,  0.888581932, 0.0574025139,  0.300000012
    287,  0.899999976,           0.,  0.300000012
    288,  0.888581932, -0.0574025139,  0.300000012
    289,  0.807402492, -0.138581932,  0.300000012
    290,         0.75, -0.150000006,  0.300000012
    291, -0.649999976,  0.150000006,  0.300000012
    292, -0.550000012,  0.150000006,  0.300000012
    293, -0.449999988,  0.150000006,  0.300000012
    294, -0.349999994,  0.150000006,  0.300000012
    295,        -0.25,  0.150000006,  0.300000012
    296, -0.150000006,  0.150000006,  0.300000012
    297, -0.0500000007,  0.150000006,  0.300000012
    298, 0.0500000007,  0.150000006,  0.300000012
    299,  0.150000006,  0.150000006,  0.300000012
    300,         0.25,  0.150000006,  0.300000012
    301,  0.349999994,  0.150000006,  0.300000012
    302,  0.449999988,  0.150000006,  0.300000012
    303,  0.550000012,  0.150000006,  0.300000012
    304,  0.649999976,  0.150000006,  0.300000012
    305,  0.856065989,  0.106066018,  0.300000012
    306,  0.856065989, -0.106066018,  0.300000012
    307, -0.649999976, -0.150000006,  0.300000012
    308, -0.550000012, -0.150000006,  0.300000012
    309, -0.449999988, -0.150000006,  0.300000012
    310, -0.349999994, -0.150000006,  0.300000012
    311,        -0.25, -0.150000006,  0.300000012
    312, -0.150000006, -0.150000006,  0.300000012
    313, -0.0500000007, -0.150000006,  0.300000012
    314, 0.0500000007, -0.150000006,  0.300000012
    315,  0.150000006, -0.150000006,  0.300000012
    316,         0.25, -0.150000006,  0.300000012
    317,  0.349999994, -0.150000006,  0.300000012
    318,  0.449999988, -0.150000006,  0.300000012
    319,  0.550000012, -0.150000006,  0.300000012
    320,  0.649999976, -0.150000006,  0.300000012
    321,  0.832925498, -0.0149648422,  0.300000012
    322,  0.784100533, 0.0628456771,  0.300000012
    323,  0.729406416, 0.0743573606,  0.300000012
    324, -0.725353241, -0.0839191377,  0.300000012
    325, -0.802840471, -0.0231915358,  0.300000012
    326, -0.793433845,  0.055117581,  0.300000012
    327,  0.777760208, -0.00484846393,  0.300000012
    328, -0.718149543, 0.0575515591,  0.300000012
    329,  0.779690742, -0.0679016784,  0.300000012
    330,  0.858609617, 0.0387705304,  0.300000012
    331,  0.720747471, -0.0668375567,  0.300000012
    332,  0.652115285, 0.0776163116,  0.300000012
    333, -0.713731468, -0.0208027884,  0.300000012
    334, -0.621186674, 0.0516216531,  0.300000012
    335,  0.621709466, -0.0393298343,  0.300000012
    336, -0.656531751, -0.0975037366,  0.300000012
    337,  -0.51899457, 0.0494230501,  0.300000012
    338, -0.417587906, 0.0494504161,  0.300000012
    339, -0.316909552, 0.0495560504,  0.300000012
    340, -0.216774106, 0.0496912152,  0.300000012
    341, -0.116735026, 0.0497531854,  0.300000012
    342, -0.016591765, 0.0497845225,  0.300000012
    343, 0.0833239034, 0.0493216105,  0.300000012
    344,  0.183342233, 0.0492441319,  0.300000012
    345,  0.283334643,  0.049797222,  0.300000012
    346, -0.384422302, -0.0491131209,  0.300000012
    347, -0.283576399, -0.0490349717,  0.300000012
    348, -0.183385685, -0.0489701368,  0.300000012
    349, -0.0833504274, -0.0489429086,  0.300000012
    350, 0.0166790728, -0.0493756421,  0.300000012
    351,  0.116620295, -0.0496055074,  0.300000012
    352,  0.216718107, -0.0496858284,  0.300000012
    353,  0.316866845, -0.0490500629,  0.300000012
    354, -0.602415204, -0.050688412,  0.300000012
    355,  0.383211523, 0.0513742641,  0.300000012
    356,  0.481736064, 0.0548581183,  0.300000012
    357,  0.572274268, 0.0640596077,  0.300000012
    358, -0.488438696, -0.0494441353,  0.300000012
    359,  0.417243272, -0.0475444123,  0.300000012
    360,  0.518074453, -0.0447730944,  0.300000012
    361,  0.723617315, 0.00201012497,  0.300000012
    362,  0.863923967, 0.00721039157,  0.300000012
    363,  0.820430756, -0.0619703084,  0.300000012
    364, -0.847279072, 0.00760738086,  0.300000012
    365, -0.839612186, 0.0457400791,  0.300000012
    366, -0.784825802, -0.0766975358,  0.300000012
    367,  0.829983056, 0.0493127294,  0.300000012
    368,  0.665597022, 0.0122219762,  0.300000012
    369, -0.824999988,  0.129903808,  0.400000006
    370, -0.879903793,  0.075000003,  0.400000006
    371, -0.899999976,           0.,  0.400000006
    372, -0.879903793, -0.075000003,  0.400000006
    373, -0.824999988, -0.129903808,  0.400000006
    374,        -0.75,  0.150000006,  0.400000006
    375,        -0.75, -0.150000006,  0.400000006
    376,         0.75,  0.150000006,  0.400000006
    377,  0.807402492,  0.138581932,  0.400000006
    378,  0.888581932, 0.0574025139,  0.400000006
    379,  0.899999976,           0.,  0.400000006
    380,  0.888581932, -0.0574025139,  0.400000006
    381,  0.807402492, -0.138581932,  0.400000006
    382,         0.75, -0.150000006,  0.400000006
    383, -0.649999976,  0.150000006,  0.400000006
    384, -0.550000012,  0.150000006,  0.400000006
    385, -0.449999988,  0.150000006,  0.400000006
    386, -0.349999994,  0.150000006,  0.400000006
    387,        -0.25,  0.150000006,  0.400000006
    388, -0.150000006,  0.150000006,  0.400000006
    389, -0.0500000007,  0.150000006,  0.400000006
    390, 0.0500000007,  0.150000006,  0.400000006
    391,  0.150000006,  0.150000006,  0.400000006
    392,         0.25,  0.150000006,  0.400000006
    393,  0.349999994,  0.150000006,  0.400000006
    394,  0.449999988,  0.150000006,  0.400000006
    395,  0.550000012,  0.150000006,  0.400000006
    396,  0.649999976,  0.150000006,  0.400000006
    397,  0.856065989,  0.106066018,  0.400000006
    398,  0.856065989, -0.106066018,  0.400000006
    399, -0.649999976, -0.150000006,  0.400000006
    400, -0.550000012, -0.150000006,  0.400000006
    401, -0.449999988, -0.150000006,  0.400000006
    402, -0.349999994, -0.150000006,  0.400000006
    403,        -0.25, -0.150000006,  0.400000006
    404, -0.150000006, -0.150000006,  0.400000006
    405, -0.0500000007, -0.150000006,  0.400000006
    406, 0.0500000007, -0.150000006,  0.400000006
    407,  0.150000006, -0.150000006,  0.400000006
    408,         0.25, -0.150000006,  0.400000006
    409,  0.349999994, -0.150000006,  0.400000006
    410,  0.449999988, -0.150000006,  0.400000006
    411,  0.550000012, -0.150000006,  0.400000006
    412,  0.649999976, -0.150000006,  0.400000006
    413,  0.832925498, -0.0149648422,  0.400000006
    414,  0.784100533, 0.0628456771,  0.400000006
    415,  0.729406416, 0.0743573606,  0.400000006
    416, -0.725353241, -0.0839191377,  0.400000006
    417, -0.802840471, -0.0231915358,  0.400000006
    418, -0.793433845,  0.055117581,  0.400000006
    419,  0.777760208, -0.00484846393,  0.400000006
    420, -0.718149543, 0.0575515591,  0.400000006
    421,  0.779690742, -0.0679016784,  0.400000006
    422,  0.858609617, 0.0387705304,  0.400000006
    423,  0.720747471, -0.0668375567,  0.400000006
    424,  0.652115285, 0.0776163116,  0.400000006
    425, -0.713731468, -0.0208027884,  0.400000006
    426, -0.621186674, 0.0516216531,  0.400000006
    427,  0.621709466, -0.0393298343,  0.400000006
    428, -0.656531751, -0.0975037366,  0.400000006
    429,  -0.51899457, 0.0494230501,  0.400000006
    430, -0.417587906, 0.0494504161,  0.400000006
    431, -0.316909552, 0.0495560504,  0.400000006
    432, -0.216774106, 0.0496912152,  0.400000006
    433, -0.116735026, 0.0497531854,  0.400000006
    434, -0.016591765, 0.0497845225,  0.400000006
    435, 0.0833239034, 0.0493216105,  0.400000006
    436,  0.183342233, 0.0492441319,  0.400000006
    437,  0.283334643,  0.049797222,  0.400000006
    438, -0.384422302, -0.0491131209,  0.400000006
    439, -0.283576399, -0.0490349717,  0.400000006
    440, -0.183385685, -0.0489701368,  0.400000006
    441, -0.0833504274, -0.0489429086,  0.400000006
    442, 0.0166790728, -0.0493756421,  0.400000006
    443,  0.116620295, -0.0496055074,  0.400000006
    444,  0.216718107, -0.0496858284,  0.400000006
    445,  0.316866845, -0.0490500629,  0.400000006
    446, -0.602415204, -0.050688412,  0.400000006
    447,  0.383211523, 0.0513742641,  0.400000006
    448,  0.481736064, 0.0548581183,  0.400000006
    449,  0.572274268, 0.0640596077,  0.400000006
    450, -0.488438696, -0.0494441353,  0.400000006
    451,  0.417243272, -0.0475444123,  0.400000006
    452,  0.518074453, -0.0447730944,  0.400000006
    453,  0.723617315, 0.00201012497,  0.400000006
    454,  0.863923967, 0.00721039157,  0.400000006
    455,  0.820430756, -0.0619703084,  0.400000006
    456, -0.847279072, 0.00760738086,  0.400000006
    457, -0.839612186, 0.0457400791,  0.400000006
    458, -0.784825802, -0.0766975358,  0.400000006
    459,  0.829983056, 0.0493127294,  0.400000006
    460,  0.665597022, 0.0122219762,  0.400000006
    461, -0.824999988,  0.129903808,          0.5
    462, -0.879903793,  0.075000003,          0.5
    463, -0.899999976,           0.,          0.5
    464, -0.879903793, -0.075000003,          0.5
    465, -0.824999988, -0.129903808,          0.5
    466,        -0.75,  0.150000006,          0.5
    467,        -0.75, -0.150000006,          0.5
    468,         0.75,  0.150000006,          0.5
    469,  0.807402492,  0.138581932,          0.5
    470,  0.888581932, 0.0574025139,          0.5
    471,  0.899999976,           0.,          0.5
    472,  0.888581932, -0.0574025139,          0.5
    473,  0.807402492, -0.138581932,          0.5
    474,         0.75, -0.150000006,          0.5
    475, -0.649999976,  0.150000006,          0.5
    476, -0.550000012,  0.150000006,          0.5
    477, -0.449999988,  0.150000006,          0.5
    478, -0.349999994,  0.150000006,          0.5
    479,        -0.25,  0.150000006,          0.5
    480, -0.150000006,  0.150000006,          0.5
    481, -0.0500000007,  0.150000006,          0.5
    482, 0.0500000007,  0.150000006,          0.5
    483,  0.150000006,  0.150000006,          0.5
    484,         0.25,  0.150000006,          0.5
    485,  0.349999994,  0.150000006,          0.5
    486,  0.449999988,  0.150000006,          0.5
    487,  0.550000012,  0.150000006,          0.5
    488,  0.649999976,  0.150000006,          0.5
    489,  0.856065989,  0.106066018,          0.5
    490,  0.856065989, -0.106066018,          0.5
    491, -0.649999976, -0.150000006,          0.5
    492, -0.550000012, -0.150000006,          0.5
    493, -0.449999988, -0.150000006,          0.5
    494, -0.349999994, -0.150000006,          0.5
    495,        -0.25, -0.150000006,          0.5
    496, -0.150000006, -0.150000006,          0.5
    497, -0.0500000007, -0.150000006,          0.5
    498, 0.0500000007, -0.150000006,          0.5
    499,  0.150000006, -0.150000006,          0.5
    500,         0.25, -0.150000006,          0.5
    501,  0.349999994, -0.150000006,          0.5
    502,  0.449999988, -0.150000006,          0.5
    503,  0.550000012, -0.150000006,          0.5
    504,  0.649999976, -0.150000006,          0.5
    505,  0.832925498, -0.0149648422,          0.5
    506,  0.784100533, 0.0628456771,          0.5
    507,  0.729406416, 0.0743573606,          0.5
    508, -0.725353241, -0.0839191377,          0.5
    509, -0.802840471, -0.0231915358,          0.5
    510, -0.793433845,  0.055117581,          0.5
    511,  0.777760208, -0.00484846393,          0.5
    512, -0.718149543, 0.0575515591,          0.5
    513,  0.779690742, -0.0679016784,          0.5
    514,  0.858609617, 0.0387705304,          0.5
    515,  0.720747471, -0.0668375567,          0.5
    516,  0.652115285, 0.0776163116,          0.5
    517, -0.713731468, -0.0208027884,          0.5
    518, -0.621186674, 0.0516216531,          0.5
    519,  0.621709466, -0.0393298343,          0.5
    520, -0.656531751, -0.0975037366,          0.5
    521,  -0.51899457, 0.0494230501,          0.5
    522, -0.417587906, 0.0494504161,          0.5
    523, -0.316909552, 0.0495560504,          0.5
    524, -0.216774106, 0.0496912152,          0.5
    525, -0.116735026, 0.0497531854,          0.5
    526, -0.016591765, 0.0497845225,          0.5
    527, 0.0833239034, 0.0493216105,          0.5
    528,  0.183342233, 0.0492441319,          0.5
    529,  0.283334643,  0.049797222,          0.5
    530, -0.384422302, -0.0491131209,          0.5
    531, -0.283576399, -0.0490349717,          0.5
    532, -0.183385685, -0.0489701368,          0.5
    533, -0.0833504274, -0.0489429086,          0.5
    534, 0.0166790728, -0.0493756421,          0.5
    535,  0.116620295, -0.0496055074,          0.5
    536,  0.216718107, -0.0496858284,          0.5
    537,  0.316866845, -0.0490500629,          0.5
    538, -0.602415204, -0.050688412,          0.5
    539,  0.383211523, 0.0513742641,          0.5
    540,  0.481736064, 0.0548581183,          0.5
    541,  0.572274268, 0.0640596077,          0.5
    542, -0.488438696, -0.0494441353,          0.5
    543,  0.417243272, -0.0475444123,          0.5
    544,  0.518074453, -0.0447730944,          0.5
    545,  0.723617315, 0.00201012497,          0.5
    546,  0.863923967, 0.00721039157,          0.5
    547,  0.820430756, -0.0619703084,          0.5
    548, -0.847279072, 0.00760738086,          0.5
    549, -0.839612186, 0.0457400791,          0.5
    550, -0.784825802, -0.0766975358,          0.5
    551,  0.829983056, 0.0493127294,          0.5
    552,  0.665597022, 0.0122219762,          0.5
    553, -0.824999988,  0.129903808,  0.600000024
    554, -0.879903793,  0.075000003,  0.600000024
    555, -0.899999976,           0.,  0.600000024
    556, -0.879903793, -0.075000003,  0.600000024
    557, -0.824999988, -0.129903808,  0.600000024
    558,        -0.75,  0.150000006,  0.600000024
    559,        -0.75, -0.150000006,  0.600000024
    560,         0.75,  0.150000006,  0.600000024
    561,  0.807402492,  0.138581932,  0.600000024
    562,  0.888581932, 0.0574025139,  0.600000024
    563,  0.899999976,           0.,  0.600000024
    564,  0.888581932, -0.0574025139,  0.600000024
    565,  0.807402492, -0.138581932,  0.600000024
    566,         0.75, -0.150000006,  0.600000024
    567, -0.649999976,  0.150000006,  0.600000024
    568, -0.550000012,  0.150000006,  0.600000024
    569, -0.449999988,  0.150000006,  0.600000024
    570, -0.349999994,  0.150000006,  0.600000024
    571,        -0.25,  0.150000006,  0.600000024
    572, -0.150000006,  0.150000006,  0.600000024
    573, -0.0500000007,  0.150000006,  0.600000024
    574, 0.0500000007,  0.150000006,  0.600000024
    575,  0.150000006,  0.150000006,  0.600000024
    576,         0.25,  0.150000006,  0.600000024
    577,  0.349999994,  0.150000006,  0.600000024
    578,  0.449999988,  0.150000006,  0.600000024
    579,  0.550000012,  0.150000006,  0.600000024
    580,  0.649999976,  0.150000006,  0.600000024
    581,  0.856065989,  0.106066018,  0.600000024
    582,  0.856065989, -0.106066018,  0.600000024
    583, -0.649999976, -0.150000006,  0.600000024
    584, -0.550000012, -0.150000006,  0.600000024
    585, -0.449999988, -0.150000006,  0.600000024
    586, -0.349999994, -0.150000006,  0.600000024
    587,        -0.25, -0.150000006,  0.600000024
    588, -0.150000006, -0.150000006,  0.600000024
    589, -0.0500000007, -0.150000006,  0.600000024
    590, 0.0500000007, -0.150000006,  0.600000024
    591,  0.150000006, -0.150000006,  0.600000024
    592,         0.25, -0.150000006,  0.600000024
    593,  0.349999994, -0.150000006,  0.600000024
    594,  0.449999988, -0.150000006,  0.600000024
    595,  0.550000012, -0.150000006,  0.600000024
    596,  0.649999976, -0.150000006,  0.600000024
    597,  0.832925498, -0.0149648422,  0.600000024
    598,  0.784100533, 0.0628456771,  0.600000024
    599,  0.729406416, 0.0743573606,  0.600000024
    600, -0.725353241, -0.0839191377,  0.600000024
    601, -0.802840471, -0.0231915358,  0.600000024
    602, -0.793433845,  0.055117581,  0.600000024
    603,  0.777760208, -0.00484846393,  0.600000024
    604, -0.718149543, 0.0575515591,  0.600000024
    605,  0.779690742, -0.0679016784,  0.600000024
    606,  0.858609617, 0.0387705304,  0.600000024
    607,  0.720747471, -0.0668375567,  0.600000024
    608,  0.652115285, 0.0776163116,  0.600000024
    609, -0.713731468, -0.0208027884,  0.600000024
    610, -0.621186674, 0.0516216531,  0.600000024
    611,  0.621709466, -0.0393298343,  0.600000024
    612, -0.656531751, -0.0975037366,  0.600000024
    613,  -0.51899457, 0.0494230501,  0.600000024
    614, -0.417587906, 0.0494504161,  0.600000024
    615, -0.316909552, 0.0495560504,  0.600000024
    616, -0.216774106, 0.0496912152,  0.600000024
    617, -0.116735026, 0.0497531854,  0.600000024
    618, -0.016591765, 0.0497845225,  0.600000024
    619, 0.0833239034, 0.0493216105,  0.600000024
    620,  0.183342233, 0.0492441319,  0.600000024
    621,  0.283334643,  0.049797222,  0.600000024
    622, -0.384422302, -0.0491131209,  0.600000024
    623, -0.283576399, -0.0490349717,  0.600000024
    624, -0.183385685, -0.0489701368,  0.600000024
    625, -0.0833504274, -0.0489429086,  0.600000024
    626, 0.0166790728, -0.0493756421,  0.600000024
    627,  0.116620295, -0.0496055074,  0.600000024
    628,  0.216718107, -0.0496858284,  0.600000024
    629,  0.316866845, -0.0490500629,  0.600000024
    630, -0.602415204, -0.050688412,  0.600000024
    631,  0.383211523, 0.0513742641,  0.600000024
    632,  0.481736064, 0.0548581183,  0.600000024
    633,  0.572274268, 0.0640596077,  0.600000024
    634, -0.488438696, -0.0494441353,  0.600000024
    635,  0.417243272, -0.0475444123,  0.600000024
    636,  0.518074453, -0.0447730944,  0.600000024
    637,  0.723617315, 0.00201012497,  0.600000024
    638,  0.863923967, 0.00721039157,  0.600000024
    639,  0.820430756, -0.0619703084,  0.600000024
    640, -0.847279072, 0.00760738086,  0.600000024
    641, -0.839612186, 0.0457400791,  0.600000024
    642, -0.784825802, -0.0766975358,  0.600000024
    643,  0.829983056, 0.0493127294,  0.600000024
    644,  0.665597022, 0.0122219762,  0.600000024
    645, -0.824999988,  0.129903808,  0.699999988
    646, -0.879903793,  0.075000003,  0.699999988
    647, -0.899999976,           0.,  0.699999988
    648, -0.879903793, -0.075000003,  0.699999988
    649, -0.824999988, -0.129903808,  0.699999988
    650,        -0.75,  0.150000006,  0.699999988
    651,        -0.75, -0.150000006,  0.699999988
    652,         0.75,  0.150000006,  0.699999988
    653,  0.807402492,  0.138581932,  0.699999988
    654,  0.888581932, 0.0574025139,  0.699999988
    655,  0.899999976,           0.,  0.699999988
    656,  0.888581932, -0.0574025139,  0.699999988
    657,  0.807402492, -0.138581932,  0.699999988
    658,         0.75, -0.150000006,  0.699999988
    659, -0.649999976,  0.150000006,  0.699999988
    660, -0.550000012,  0.150000006,  0.699999988
    661, -0.449999988,  0.150000006,  0.699999988
    662, -0.349999994,  0.150000006,  0.699999988
    663,        -0.25,  0.150000006,  0.699999988
    664, -0.150000006,  0.150000006,  0.699999988
    665, -0.0500000007,  0.150000006,  0.699999988
    666, 0.0500000007,  0.150000006,  0.699999988
    667,  0.150000006,  0.150000006,  0.699999988
    668,         0.25,  0.150000006,  0.699999988
    669,  0.349999994,  0.150000006,  0.699999988
    670,  0.449999988,  0.150000006,  0.699999988
    671,  0.550000012,  0.150000006,  0.699999988
    672,  0.649999976,  0.150000006,  0.699999988
    673,  0.856065989,  0.106066018,  0.699999988
    674,  0.856065989, -0.106066018,  0.699999988
    675, -0.649999976, -0.150000006,  0.699999988
    676, -0.550000012, -0.150000006,  0.699999988
    677, -0.449999988, -0.150000006,  0.699999988
    678, -0.349999994, -0.150000006,  0.699999988
    679,        -0.25, -0.150000006,  0.699999988
    680, -0.150000006, -0.150000006,  0.699999988
    681, -0.0500000007, -0.150000006,  0.699999988
    682, 0.0500000007, -0.150000006,  0.699999988
    683,  0.150000006, -0.150000006,  0.699999988
    684,         0.25, -0.150000006,  0.699999988
    685,  0.349999994, -0.150000006,  0.699999988
    686,  0.449999988, -0.150000006,  0.699999988
    687,  0.550000012, -0.150000006,  0.699999988
    688,  0.649999976, -0.150000006,  0.699999988
    689,  0.832925498, -0.0149648422,  0.699999988
    690,  0.784100533, 0.0628456771,  0.699999988
    691,  0.729406416, 0.0743573606,  0.699999988
    692, -0.725353241, -0.0839191377,  0.699999988
    693, -0.802840471, -0.0231915358,  0.699999988
    694, -0.793433845,  0.055117581,  0.699999988
    695,  0.777760208, -0.00484846393,  0.699999988
    696, -0.718149543, 0.0575515591,  0.699999988
    697,  0.779690742, -0.0679016784,  0.699999988
    698,  0.858609617, 0.0387705304,  0.699999988
    699,  0.720747471, -0.0668375567,  0.699999988
    700,  0.652115285, 0.0776163116,  0.699999988
    701, -0.713731468, -0.0208027884,  0.699999988
    702, -0.621186674, 0.0516216531,  0.699999988
    703,  0.621709466, -0.0393298343,  0.699999988
    704, -0.656531751, -0.0975037366,  0.699999988
    705,  -0.51899457, 0.0494230501,  0.699999988
    706, -0.417587906, 0.0494504161,  0.699999988
    707, -0.316909552, 0.0495560504,  0.699999988
    708, -0.216774106, 0.0496912152,  0.699999988
    709, -0.116735026, 0.0497531854,  0.699999988
    710, -0.016591765, 0.0497845225,  0.699999988
    711, 0.0833239034, 0.0493216105,  0.699999988
    712,  0.183342233, 0.0492441319,  0.699999988
    713,  0.283334643,  0.049797222,  0.699999988
    714, -0.384422302, -0.0491131209,  0.699999988
    715, -0.283576399, -0.0490349717,  0.699999988
    716, -0.183385685, -0.0489701368,  0.699999988
    717, -0.0833504274, -0.0489429086,  0.699999988
    718, 0.0166790728, -0.0493756421,  0.699999988
    719,  0.116620295, -0.0496055074,  0.699999988
    720,  0.216718107, -0.0496858284,  0.699999988
    721,  0.316866845, -0.0490500629,  0.699999988
    722, -0.602415204, -0.050688412,  0.699999988
    723,  0.383211523, 0.0513742641,  0.699999988
    724,  0.481736064, 0.0548581183,  0.699999988
    725,  0.572274268, 0.0640596077,  0.699999988
    726, -0.488438696, -0.0494441353,  0.699999988
    727,  0.417243272, -0.0475444123,  0.699999988
    728,  0.518074453, -0.0447730944,  0.699999988
    729,  0.723617315, 0.00201012497,  0.699999988
    730,  0.863923967, 0.00721039157,  0.699999988
    731,  0.820430756, -0.0619703084,  0.699999988
    732, -0.847279072, 0.00760738086,  0.699999988
    733, -0.839612186, 0.0457400791,  0.699999988
    734, -0.784825802, -0.0766975358,  0.699999988
    735,  0.829983056, 0.0493127294,  0.699999988
    736,  0.665597022, 0.0122219762,  0.699999988
    737, -0.824999988,  0.129903808,  0.800000012
    738, -0.879903793,  0.075000003,  0.800000012
    739, -0.899999976,           0.,  0.800000012
    740, -0.879903793, -0.075000003,  0.800000012
    741, -0.824999988, -0.129903808,  0.800000012
    742,        -0.75,  0.150000006,  0.800000012
    743,        -0.75, -0.150000006,  0.800000012
    744,         0.75,  0.150000006,  0.800000012
    745,  0.807402492,  0.138581932,  0.800000012
    746,  0.888581932, 0.0574025139,  0.800000012
    747,  0.899999976,           0.,  0.800000012
    748,  0.888581932, -0.0574025139,  0.800000012
    749,  0.807402492, -0.138581932,  0.800000012
    750,         0.75, -0.150000006,  0.800000012
    751, -0.649999976,  0.150000006,  0.800000012
    752, -0.550000012,  0.150000006,  0.800000012
    753, -0.449999988,  0.150000006,  0.800000012
    754, -0.349999994,  0.150000006,  0.800000012
    755,        -0.25,  0.150000006,  0.800000012
    756, -0.150000006,  0.150000006,  0.800000012
    757, -0.0500000007,  0.150000006,  0.800000012
    758, 0.0500000007,  0.150000006,  0.800000012
    759,  0.150000006,  0.150000006,  0.800000012
    760,         0.25,  0.150000006,  0.800000012
    761,  0.349999994,  0.150000006,  0.800000012
    762,  0.449999988,  0.150000006,  0.800000012
    763,  0.550000012,  0.150000006,  0.800000012
    764,  0.649999976,  0.150000006,  0.800000012
    765,  0.856065989,  0.106066018,  0.800000012
    766,  0.856065989, -0.106066018,  0.800000012
    767, -0.649999976, -0.150000006,  0.800000012
    768, -0.550000012, -0.150000006,  0.800000012
    769, -0.449999988, -0.150000006,  0.800000012
    770, -0.349999994, -0.150000006,  0.800000012
    771,        -0.25, -0.150000006,  0.800000012
    772, -0.150000006, -0.150000006,  0.800000012
    773, -0.0500000007, -0.150000006,  0.800000012
    774, 0.0500000007, -0.150000006,  0.800000012
    775,  0.150000006, -0.150000006,  0.800000012
    776,         0.25, -0.150000006,  0.800000012
    777,  0.349999994, -0.150000006,  0.800000012
    778,  0.449999988, -0.150000006,  0.800000012
    779,  0.550000012, -0.150000006,  0.800000012
    780,  0.649999976, -0.150000006,  0.800000012
    781,  0.832925498, -0.0149648422,  0.800000012
    782,  0.784100533, 0.0628456771,  0.800000012
    783,  0.729406416, 0.0743573606,  0.800000012
    784, -0.725353241, -0.0839191377,  0.800000012
    785, -0.802840471, -0.0231915358,  0.800000012
    786, -0.793433845,  0.055117581,  0.800000012
    787,  0.777760208, -0.00484846393,  0.800000012
    788, -0.718149543, 0.0575515591,  0.800000012
    789,  0.779690742, -0.0679016784,  0.800000012
    790,  0.858609617, 0.0387705304,  0.800000012
    791,  0.720747471, -0.0668375567,  0.800000012
    792,  0.652115285, 0.0776163116,  0.800000012
    793, -0.713731468, -0.0208027884,  0.800000012
    794, -0.621186674, 0.0516216531,  0.800000012
    795,  0.621709466, -0.0393298343,  0.800000012
    796, -0.656531751, -0.0975037366,  0.800000012
    797,  -0.51899457, 0.0494230501,  0.800000012
    798, -0.417587906, 0.0494504161,  0.800000012
    799, -0.316909552, 0.0495560504,  0.800000012
    800, -0.216774106, 0.0496912152,  0.800000012
    801, -0.116735026, 0.0497531854,  0.800000012
    802, -0.016591765, 0.0497845225,  0.800000012
    803, 0.0833239034, 0.0493216105,  0.800000012
    804,  0.183342233, 0.0492441319,  0.800000012
    805,  0.283334643,  0.049797222,  0.800000012
    806, -0.384422302, -0.0491131209,  0.800000012
    807, -0.283576399, -0.0490349717,  0.800000012
    808, -0.183385685, -0.0489701368,  0.800000012
    809, -0.0833504274, -0.0489429086,  0.800000012
    810, 0.0166790728, -0.0493756421,  0.800000012
    811,  0.116620295, -0.0496055074,  0.800000012
    812,  0.216718107, -0.0496858284,  0.800000012
    813,  0.316866845, -0.0490500629,  0.800000012
    814, -0.602415204, -0.050688412,  0.800000012
    815,  0.383211523, 0.0513742641,  0.800000012
    816,  0.481736064, 0.0548581183,  0.800000012
    817,  0.572274268, 0.0640596077,  0.800000012
    818, -0.488438696, -0.0494441353,  0.800000012
    819,  0.417243272, -0.0475444123,  0.800000012
    820,  0.518074453, -0.0447730944,  0.800000012
    821,  0.723617315, 0.00201012497,  0.800000012
    822,  0.863923967, 0.00721039157,  0.800000012
    823,  0.820430756, -0.0619703084,  0.800000012
    824, -0.847279072, 0.00760738086,  0.800000012
    825, -0.839612186, 0.0457400791,  0.800000012
    826, -0.784825802, -0.0766975358,  0.800000012
    827,  0.829983056, 0.0493127294,  0.800000012
    828,  0.665597022, 0.0122219762,  0.800000012
    829, -0.824999988,  0.129903808,  0.899999976
    830, -0.879903793,  0.075000003,  0.899999976
    831, -0.899999976,           0.,  0.899999976
    832, -0.879903793, -0.075000003,  0.899999976
    833, -0.824999988, -0.129903808,  0.899999976
    834,        -0.75,  0.150000006,  0.899999976
    835,        -0.75, -0.150000006,  0.899999976
    836,         0.75,  0.150000006,  0.899999976
    837,  0.807402492,  0.138581932,  0.899999976
    838,  0.888581932, 0.0574025139,  0.899999976
    839,  0.899999976,           0.,  0.899999976
    840,  0.888581932, -0.0574025139,  0.899999976
    841,  0.807402492, -0.138581932,  0.899999976
    842,         0.75, -0.150000006,  0.899999976
    843, -0.649999976,  0.150000006,  0.899999976
    844, -0.550000012,  0.150000006,  0.899999976
    845, -0.449999988,  0.150000006,  0.899999976
    846, -0.349999994,  0.150000006,  0.899999976
    847,        -0.25,  0.150000006,  0.899999976
    848, -0.150000006,  0.150000006,  0.899999976
    849, -0.0500000007,  0.150000006,  0.899999976
    850, 0.0500000007,  0.150000006,  0.899999976
    851,  0.150000006,  0.150000006,  0.899999976
    852,         0.25,  0.150000006,  0.899999976
    853,  0.349999994,  0.150000006,  0.899999976
    854,  0.449999988,  0.150000006,  0.899999976
    855,  0.550000012,  0.150000006,  0.899999976
    856,  0.649999976,  0.150000006,  0.899999976
    857,  0.856065989,  0.106066018,  0.899999976
    858,  0.856065989, -0.106066018,  0.899999976
    859, -0.649999976, -0.150000006,  0.899999976
    860, -0.550000012, -0.150000006,  0.899999976
    861, -0.449999988, -0.150000006,  0.899999976
    862, -0.349999994, -0.150000006,  0.899999976
    863,        -0.25, -0.150000006,  0.899999976
    864, -0.150000006, -0.150000006,  0.899999976
    865, -0.0500000007, -0.150000006,  0.899999976
    866, 0.0500000007, -0.150000006,  0.899999976
    867,  0.150000006, -0.150000006,  0.899999976
    868,         0.25, -0.150000006,  0.899999976
    869,  0.349999994, -0.150000006,  0.899999976
    870,  0.449999988, -0.150000006,  0.899999976
    871,  0.550000012, -0.150000006,  0.899999976
    872,  0.649999976, -0.150000006,  0.899999976
    873,  0.832925498, -0.0149648422,  0.899999976
    874,  0.784100533, 0.0628456771,  0.899999976
    875,  0.729406416, 0.0743573606,  0.899999976
    876, -0.725353241, -0.0839191377,  0.899999976
    877, -0.802840471, -0.0231915358,  0.899999976
    878, -0.793433845,  0.055117581,  0.899999976
    879,  0.777760208, -0.00484846393,  0.899999976
    880, -0.718149543, 0.0575515591,  0.899999976
    881,  0.779690742, -0.0679016784,  0.899999976
    882,  0.858609617, 0.0387705304,  0.899999976
    883,  0.720747471, -0.0668375567,  0.899999976
    884,  0.652115285, 0.0776163116,  0.899999976
    885, -0.713731468, -0.0208027884,  0.899999976
    886, -0.621186674, 0.0516216531,  0.899999976
    887,  0.621709466, -0.0393298343,  0.899999976
    888, -0.656531751, -0.0975037366,  0.899999976
    889,  -0.51899457, 0.0494230501,  0.899999976
    890, -0.417587906, 0.0494504161,  0.899999976
    891, -0.316909552, 0.0495560504,  0.899999976
    892, -0.216774106, 0.0496912152,  0.899999976
    893, -0.116735026, 0.0497531854,  0.899999976
    894, -0.016591765, 0.0497845225,  0.899999976
    895, 0.0833239034, 0.0493216105,  0.899999976
    896,  0.183342233, 0.0492441319,  0.899999976
    897,  0.283334643,  0.049797222,  0.899999976
    898, -0.384422302, -0.0491131209,  0.899999976
    899, -0.283576399, -0.0490349717,  0.899999976
    900, -0.183385685, -0.0489701368,  0.899999976
    901, -0.0833504274, -0.0489429086,  0.899999976
    902, 0.0166790728, -0.0493756421,  0.899999976
    903,  0.116620295, -0.0496055074,  0.899999976
    904,  0.216718107, -0.0496858284,  0.899999976
    905,  0.316866845, -0.0490500629,  0.899999976
    906, -0.602415204, -0.050688412,  0.899999976
    907,  0.383211523, 0.0513742641,  0.899999976
    908,  0.481736064, 0.0548581183,  0.899999976
    909,  0.572274268, 0.0640596077,  0.899999976
    910, -0.488438696, -0.0494441353,  0.899999976
    911,  0.417243272, -0.0475444123,  0.899999976
    912,  0.518074453, -0.0447730944,  0.899999976
    913,  0.723617315, 0.00201012497,  0.899999976
    914,  0.863923967, 0.00721039157,  0.899999976
    915,  0.820430756, -0.0619703084,  0.899999976
    916, -0.847279072, 0.00760738086,  0.899999976
    917, -0.839612186, 0.0457400791,  0.899999976
    918, -0.784825802, -0.0766975358,  0.899999976
    919,  0.829983056, 0.0493127294,  0.899999976
    920,  0.665597022, 0.0122219762,  0.899999976
    921, -0.824999988,  0.129903808,           1.
    922, -0.879903793,  0.075000003,           1.
    923, -0.899999976,           0.,           1.
    924, -0.879903793, -0.075000003,           1.
    925, -0.824999988, -0.129903808,           1.
    926,        -0.75,  0.150000006,           1.
    927,        -0.75, -0.150000006,           1.
    928,         0.75,  0.150000006,           1.
    929,  0.807402492,  0.138581932,           1.
    930,  0.888581932, 0.0574025139,           1.
    931,  0.899999976,           0.,           1.
    932,  0.888581932, -0.0574025139,           1.
    933,  0.807402492, -0.138581932,           1.
    934,         0.75, -0.150000006,           1.
    935, -0.649999976,  0.150000006,           1.
    936, -0.550000012,  0.150000006,           1.
    937, -0.449999988,  0.150000006,           1.
    938, -0.349999994,  0.150000006,           1.
    939,        -0.25,  0.150000006,           1.
    940, -0.150000006,  0.150000006,           1.
    941, -0.0500000007,  0.150000006,           1.
    942, 0.0500000007,  0.150000006,           1.
    943,  0.150000006,  0.150000006,           1.
    944,         0.25,  0.150000006,           1.
    945,  0.349999994,  0.150000006,           1.
    946,  0.449999988,  0.150000006,           1.
    947,  0.550000012,  0.150000006,           1.
    948,  0.649999976,  0.150000006,           1.
    949,  0.856065989,  0.106066018,           1.
    950,  0.856065989, -0.106066018,           1.
    951, -0.649999976, -0.150000006,           1.
    952, -0.550000012, -0.150000006,           1.
    953, -0.449999988, -0.150000006,           1.
    954, -0.349999994, -0.150000006,           1.
    955,        -0.25, -0.150000006,           1.
    956, -0.150000006, -0.150000006,           1.
    957, -0.0500000007, -0.150000006,           1.
    958, 0.0500000007, -0.150000006,           1.
    959,  0.150000006, -0.150000006,           1.
    960,         0.25, -0.150000006,           1.
    961,  0.349999994, -0.150000006,           1.
    962,  0.449999988, -0.150000006,           1.
    963,  0.550000012, -0.150000006,           1.
    964,  0.649999976, -0.150000006,           1.
    965,  0.832925498, -0.0149648422,           1.
    966,  0.784100533, 0.0628456771,           1.
    967,  0.729406416, 0.0743573606,           1.
    968, -0.725353241, -0.0839191377,           1.
    969, -0.802840471, -0.0231915358,           1.
    970, -0.793433845,  0.055117581,           1.
    971,  0.777760208, -0.00484846393,           1.
    972, -0.718149543, 0.0575515591,           1.
    973,  0.779690742, -0.0679016784,           1.
    974,  0.858609617, 0.0387705304,           1.
    975,  0.720747471, -0.0668375567,           1.
    976,  0.652115285, 0.0776163116,           1.
    977, -0.713731468, -0.0208027884,           1.
    978, -0.621186674, 0.0516216531,           1.
    979,  0.621709466, -0.0393298343,           1.
    980, -0.656531751, -0.0975037366,           1.
    981,  -0.51899457, 0.0494230501,           1.
    982, -0.417587906, 0.0494504161,           1.
    983, -0.316909552, 0.0495560504,           1.
    984, -0.216774106, 0.0496912152,           1.
    985, -0.116735026, 0.0497531854,           1.
    986, -0.016591765, 0.0497845225,           1.
    987, 0.0833239034, 0.0493216105,           1.
    988,  0.183342233, 0.0492441319,           1.
    989,  0.283334643,  0.049797222,           1.
    990, -0.384422302, -0.0491131209,           1.
    991, -0.283576399, -0.0490349717,           1.
    992, -0.183385685, -0.0489701368,           1.
    993, -0.0833504274, -0.0489429086,           1.
    994, 0.0166790728, -0.0493756421,           1.
    995,  0.116620295, -0.0496055074,           1.
    996,  0.216718107, -0.0496858284,           1.
    997,  0.316866845, -0.0490500629,           1.
    998, -0.602415204, -0.050688412,           1.
    999,  0.383211523, 0.0513742641,           1.
   1000,  0.481736064, 0.0548581183,           1.
   1001,  0.572274268, 0.0640596077,           1.
   1002, -0.488438696, -0.0494441353,           1.
   1003,  0.417243272, -0.0475444123,           1.
   1004,  0.518074453, -0.0447730944,           1.
   1005,  0.723617315, 0.00201012497,           1.
   1006,  0.863923967, 0.00721039157,           1.
   1007,  0.820430756, -0.0619703084,           1.
   1008, -0.847279072, 0.00760738086,           1.
   1009, -0.839612186, 0.0457400791,           1.
   1010, -0.784825802, -0.0766975358,           1.
   1011,  0.829983056, 0.0493127294,           1.
   1012,  0.665597022, 0.0122219762,           1.
   1013, -0.824999988,  0.129903808,   1.10000002
   1014, -0.879903793,  0.075000003,   1.10000002
   1015, -0.899999976,           0.,   1.10000002
   1016, -0.879903793, -0.075000003,   1.10000002
   1017, -0.824999988, -0.129903808,   1.10000002
   1018,        -0.75,  0.150000006,   1.10000002
   1019,        -0.75, -0.150000006,   1.10000002
   1020,         0.75,  0.150000006,   1.10000002
   1021,  0.807402492,  0.138581932,   1.10000002
   1022,  0.888581932, 0.0574025139,   1.10000002
   1023,  0.899999976,           0.,   1.10000002
   1024,  0.888581932, -0.0574025139,   1.10000002
   1025,  0.807402492, -0.138581932,   1.10000002
   1026,         0.75, -0.150000006,   1.10000002
   1027, -0.649999976,  0.150000006,   1.10000002
   1028, -0.550000012,  0.150000006,   1.10000002
   1029, -0.449999988,  0.150000006,   1.10000002
   1030, -0.349999994,  0.150000006,   1.10000002
   1031,        -0.25,  0.150000006,   1.10000002
   1032, -0.150000006,  0.150000006,   1.10000002
   1033, -0.0500000007,  0.150000006,   1.10000002
   1034, 0.0500000007,  0.150000006,   1.10000002
   1035,  0.150000006,  0.150000006,   1.10000002
   1036,         0.25,  0.150000006,   1.10000002
   1037,  0.349999994,  0.150000006,   1.10000002
   1038,  0.449999988,  0.150000006,   1.10000002
   1039,  0.550000012,  0.150000006,   1.10000002
   1040,  0.649999976,  0.150000006,   1.10000002
   1041,  0.856065989,  0.106066018,   1.10000002
   1042,  0.856065989, -0.106066018,   1.10000002
   1043, -0.649999976, -0.150000006,   1.10000002
   1044, -0.550000012, -0.150000006,   1.10000002
   1045, -0.449999988, -0.150000006,   1.10000002
   1046, -0.349999994, -0.150000006,   1.10000002
   1047,        -0.25, -0.150000006,   1.10000002
   1048, -0.150000006, -0.150000006,   1.10000002
   1049, -0.0500000007, -0.150000006,   1.10000002
   1050, 0.0500000007, -0.150000006,   1.10000002
   1051,  0.150000006, -0.150000006,   1.10000002
   1052,         0.25, -0.150000006,   1.10000002
   1053,  0.349999994, -0.150000006,   1.10000002
   1054,  0.449999988, -0.150000006,   1.10000002
   1055,  0.550000012, -0.150000006,   1.10000002
   1056,  0.649999976, -0.150000006,   1.10000002
   1057,  0.832925498, -0.0149648422,   1.10000002
   1058,  0.784100533, 0.0628456771,   1.10000002
   1059,  0.729406416, 0.0743573606,   1.10000002
   1060, -0.725353241, -0.0839191377,   1.10000002
   1061, -0.802840471, -0.0231915358,   1.10000002
   1062, -0.793433845,  0.055117581,   1.10000002
   1063,  0.777760208, -0.00484846393,   1.10000002
   1064, -0.718149543, 0.0575515591,   1.10000002
   1065,  0.779690742, -0.0679016784,   1.10000002
   1066,  0.858609617, 0.0387705304,   1.10000002
   1067,  0.720747471, -0.0668375567,   1.10000002
   1068,  0.652115285, 0.0776163116,   1.10000002
   1069, -0.713731468, -0.0208027884,   1.10000002
   1070, -0.621186674, 0.0516216531,   1.10000002
   1071,  0.621709466, -0.0393298343,   1.10000002
   1072, -0.656531751, -0.0975037366,   1.10000002
   1073,  -0.51899457, 0.0494230501,   1.10000002
   1074, -0.417587906, 0.0494504161,   1.10000002
   1075, -0.316909552, 0.0495560504,   1.10000002
   1076, -0.216774106, 0.0496912152,   1.10000002
   1077, -0.116735026, 0.0497531854,   1.10000002
   1078, -0.016591765, 0.0497845225,   1.10000002
   1079, 0.0833239034, 0.0493216105,   1.10000002
   1080,  0.183342233, 0.0492441319,   1.10000002
   1081,  0.283334643,  0.049797222,   1.10000002
   1082, -0.384422302, -0.0491131209,   1.10000002
   1083, -0.283576399, -0.0490349717,   1.10000002
   1084, -0.183385685, -0.0489701368,   1.10000002
   1085, -0.0833504274, -0.0489429086,   1.10000002
   1086, 0.0166790728, -0.0493756421,   1.10000002
   1087,  0.116620295, -0.0496055074,   1.10000002
   1088,  0.216718107, -0.0496858284,   1.10000002
   1089,  0.316866845, -0.0490500629,   1.10000002
   1090, -0.602415204, -0.050688412,   1.10000002
   1091,  0.383211523, 0.0513742641,   1.10000002
   1092,  0.481736064, 0.0548581183,   1.10000002
   1093,  0.572274268, 0.0640596077,   1.10000002
   1094, -0.488438696, -0.0494441353,   1.10000002
   1095,  0.417243272, -0.0475444123,   1.10000002
   1096,  0.518074453, -0.0447730944,   1.10000002
   1097,  0.723617315, 0.00201012497,   1.10000002
   1098,  0.863923967, 0.00721039157,   1.10000002
   1099,  0.820430756, -0.0619703084,   1.10000002
   1100, -0.847279072, 0.00760738086,   1.10000002
   1101, -0.839612186, 0.0457400791,   1.10000002
   1102, -0.784825802, -0.0766975358,   1.10000002
   1103,  0.829983056, 0.0493127294,   1.10000002
   1104,  0.665597022, 0.0122219762,   1.10000002
   1105, -0.824999988,  0.129903808,   1.20000005
   1106, -0.879903793,  0.075000003,   1.20000005
   1107, -0.899999976,           0.,   1.20000005
   1108, -0.879903793, -0.075000003,   1.20000005
   1109, -0.824999988, -0.129903808,   1.20000005
   1110,        -0.75,  0.150000006,   1.20000005
   1111,        -0.75, -0.150000006,   1.20000005
   1112,         0.75,  0.150000006,   1.20000005
   1113,  0.807402492,  0.138581932,   1.20000005
   1114,  0.888581932, 0.0574025139,   1.20000005
   1115,  0.899999976,           0.,   1.20000005
   1116,  0.888581932, -0.0574025139,   1.20000005
   1117,  0.807402492, -0.138581932,   1.20000005
   1118,         0.75, -0.150000006,   1.20000005
   1119, -0.649999976,  0.150000006,   1.20000005
   1120, -0.550000012,  0.150000006,   1.20000005
   1121, -0.449999988,  0.150000006,   1.20000005
   1122, -0.349999994,  0.150000006,   1.20000005
   1123,        -0.25,  0.150000006,   1.20000005
   1124, -0.150000006,  0.150000006,   1.20000005
   1125, -0.0500000007,  0.150000006,   1.20000005
   1126, 0.0500000007,  0.150000006,   1.20000005
   1127,  0.150000006,  0.150000006,   1.20000005
   1128,         0.25,  0.150000006,   1.20000005
   1129,  0.349999994,  0.150000006,   1.20000005
   1130,  0.449999988,  0.150000006,   1.20000005
   1131,  0.550000012,  0.150000006,   1.20000005
   1132,  0.649999976,  0.150000006,   1.20000005
   1133,  0.856065989,  0.106066018,   1.20000005
   1134,  0.856065989, -0.106066018,   1.20000005
   1135, -0.649999976, -0.150000006,   1.20000005
   1136, -0.550000012, -0.150000006,   1.20000005
   1137, -0.449999988, -0.150000006,   1.20000005
   1138, -0.349999994, -0.150000006,   1.20000005
   1139,        -0.25, -0.150000006,   1.20000005
   1140, -0.150000006, -0.150000006,   1.20000005
   1141, -0.0500000007, -0.150000006,   1.20000005
   1142, 0.0500000007, -0.150000006,   1.20000005
   1143,  0.150000006, -0.150000006,   1.20000005
   1144,         0.25, -0.150000006,   1.20000005
   1145,  0.349999994, -0.150000006,   1.20000005
   1146,  0.449999988, -0.150000006,   1.20000005
   1147,  0.550000012, -0.150000006,   1.20000005
   1148,  0.649999976, -0.150000006,   1.20000005
   1149,  0.832925498, -0.0149648422,   1.20000005
   1150,  0.784100533, 0.0628456771,   1.20000005
   1151,  0.729406416, 0.0743573606,   1.20000005
   1152, -0.725353241, -0.0839191377,   1.20000005
   1153, -0.802840471, -0.0231915358,   1.20000005
   1154, -0.793433845,  0.055117581,   1.20000005
   1155,  0.777760208, -0.00484846393,   1.20000005
   1156, -0.718149543, 0.0575515591,   1.20000005
   1157,  0.779690742, -0.0679016784,   1.20000005
   1158,  0.858609617, 0.0387705304,   1.20000005
   1159,  0.720747471, -0.0668375567,   1.20000005
   1160,  0.652115285, 0.0776163116,   1.20000005
   1161, -0.713731468, -0.0208027884,   1.20000005
   1162, -0.621186674, 0.0516216531,   1.20000005
   1163,  0.621709466, -0.0393298343,   1.20000005
   1164, -0.656531751, -0.0975037366,   1.20000005
   1165,  -0.51899457, 0.0494230501,   1.20000005
   1166, -0.417587906, 0.0494504161,   1.20000005
   1167, -0.316909552, 0.0495560504,   1.20000005
   1168, -0.216774106, 0.0496912152,   1.20000005
   1169, -0.116735026, 0.0497531854,   1.20000005
   1170, -0.016591765, 0.0497845225,   1.20000005
   1171, 0.0833239034, 0.0493216105,   1.20000005
   1172,  0.183342233, 0.0492441319,   1.20000005
   1173,  0.283334643,  0.049797222,   1.20000005
   1174, -0.384422302, -0.0491131209,   1.20000005
   1175, -0.283576399, -0.0490349717,   1.20000005
   1176, -0.183385685, -0.0489701368,   1.20000005
   1177, -0.0833504274, -0.0489429086,   1.20000005
   1178, 0.0166790728, -0.0493756421,   1.20000005
   1179,  0.116620295, -0.0496055074,   1.20000005
   1180,  0.216718107, -0.0496858284,   1.20000005
   1181,  0.316866845, -0.0490500629,   1.20000005
   1182, -0.602415204, -0.050688412,   1.20000005
   1183,  0.383211523, 0.0513742641,   1.20000005
   1184,  0.481736064, 0.0548581183,   1.20000005
   1185,  0.572274268, 0.0640596077,   1.20000005
   1186, -0.488438696, -0.0494441353,   1.20000005
   1187,  0.417243272, -0.0475444123,   1.20000005
   1188,  0.518074453, -0.0447730944,   1.20000005
   1189,  0.723617315, 0.00201012497,   1.20000005
   1190,  0.863923967, 0.00721039157,   1.20000005
   1191,  0.820430756, -0.0619703084,   1.20000005
   1192, -0.847279072, 0.00760738086,   1.20000005
   1193, -0.839612186, 0.0457400791,   1.20000005
   1194, -0.784825802, -0.0766975358,   1.20000005
   1195,  0.829983056, 0.0493127294,   1.20000005
   1196,  0.665597022, 0.0122219762,   1.20000005
   1197, -0.824999988,  0.129903808,   1.29999995
   1198, -0.879903793,  0.075000003,   1.29999995
   1199, -0.899999976,           0.,   1.29999995
   1200, -0.879903793, -0.075000003,   1.29999995
   1201, -0.824999988, -0.129903808,   1.29999995
   1202,        -0.75,  0.150000006,   1.29999995
   1203,        -0.75, -0.150000006,   1.29999995
   1204,         0.75,  0.150000006,   1.29999995
   1205,  0.807402492,  0.138581932,   1.29999995
   1206,  0.888581932, 0.0574025139,   1.29999995
   1207,  0.899999976,           0.,   1.29999995
   1208,  0.888581932, -0.0574025139,   1.29999995
   1209,  0.807402492, -0.138581932,   1.29999995
   1210,         0.75, -0.150000006,   1.29999995
   1211, -0.649999976,  0.150000006,   1.29999995
   1212, -0.550000012,  0.150000006,   1.29999995
   1213, -0.449999988,  0.150000006,   1.29999995
   1214, -0.349999994,  0.150000006,   1.29999995
   1215,        -0.25,  0.150000006,   1.29999995
   1216, -0.150000006,  0.150000006,   1.29999995
   1217, -0.0500000007,  0.150000006,   1.29999995
   1218, 0.0500000007,  0.150000006,   1.29999995
   1219,  0.150000006,  0.150000006,   1.29999995
   1220,         0.25,  0.150000006,   1.29999995
   1221,  0.349999994,  0.150000006,   1.29999995
   1222,  0.449999988,  0.150000006,   1.29999995
   1223,  0.550000012,  0.150000006,   1.29999995
   1224,  0.649999976,  0.150000006,   1.29999995
   1225,  0.856065989,  0.106066018,   1.29999995
   1226,  0.856065989, -0.106066018,   1.29999995
   1227, -0.649999976, -0.150000006,   1.29999995
   1228, -0.550000012, -0.150000006,   1.29999995
   1229, -0.449999988, -0.150000006,   1.29999995
   1230, -0.349999994, -0.150000006,   1.29999995
   1231,        -0.25, -0.150000006,   1.29999995
   1232, -0.150000006, -0.150000006,   1.29999995
   1233, -0.0500000007, -0.150000006,   1.29999995
   1234, 0.0500000007, -0.150000006,   1.29999995
   1235,  0.150000006, -0.150000006,   1.29999995
   1236,         0.25, -0.150000006,   1.29999995
   1237,  0.349999994, -0.150000006,   1.29999995
   1238,  0.449999988, -0.150000006,   1.29999995
   1239,  0.550000012, -0.150000006,   1.29999995
   1240,  0.649999976, -0.150000006,   1.29999995
   1241,  0.832925498, -0.0149648422,   1.29999995
   1242,  0.784100533, 0.0628456771,   1.29999995
   1243,  0.729406416, 0.0743573606,   1.29999995
   1244, -0.725353241, -0.0839191377,   1.29999995
   1245, -0.802840471, -0.0231915358,   1.29999995
   1246, -0.793433845,  0.055117581,   1.29999995
   1247,  0.777760208, -0.00484846393,   1.29999995
   1248, -0.718149543, 0.0575515591,   1.29999995
   1249,  0.779690742, -0.0679016784,   1.29999995
   1250,  0.858609617, 0.0387705304,   1.29999995
   1251,  0.720747471, -0.0668375567,   1.29999995
   1252,  0.652115285, 0.0776163116,   1.29999995
   1253, -0.713731468, -0.0208027884,   1.29999995
   1254, -0.621186674, 0.0516216531,   1.29999995
   1255,  0.621709466, -0.0393298343,   1.29999995
   1256, -0.656531751, -0.0975037366,   1.29999995
   1257,  -0.51899457, 0.0494230501,   1.29999995
   1258, -0.417587906, 0.0494504161,   1.29999995
   1259, -0.316909552, 0.0495560504,   1.29999995
   1260, -0.216774106, 0.0496912152,   1.29999995
   1261, -0.116735026, 0.0497531854,   1.29999995
   1262, -0.016591765, 0.0497845225,   1.29999995
   1263, 0.0833239034, 0.0493216105,   1.29999995
   1264,  0.183342233, 0.0492441319,   1.29999995
   1265,  0.283334643,  0.049797222,   1.29999995
   1266, -0.384422302, -0.0491131209,   1.29999995
   1267, -0.283576399, -0.0490349717,   1.29999995
   1268, -0.183385685, -0.0489701368,   1.29999995
   1269, -0.0833504274, -0.0489429086,   1.29999995
   1270, 0.0166790728, -0.0493756421,   1.29999995
   1271,  0.116620295, -0.0496055074,   1.29999995
   1272,  0.216718107, -0.0496858284,   1.29999995
   1273,  0.316866845, -0.0490500629,   1.29999995
   1274, -0.602415204, -0.050688412,   1.29999995
   1275,  0.383211523, 0.0513742641,   1.29999995
   1276,  0.481736064, 0.0548581183,   1.29999995
   1277,  0.572274268, 0.0640596077,   1.29999995
   1278, -0.488438696, -0.0494441353,   1.29999995
   1279,  0.417243272, -0.0475444123,   1.29999995
   1280,  0.518074453, -0.0447730944,   1.29999995
   1281,  0.723617315, 0.00201012497,   1.29999995
   1282,  0.863923967, 0.00721039157,   1.29999995
   1283,  0.820430756, -0.0619703084,   1.29999995
   1284, -0.847279072, 0.00760738086,   1.29999995
   1285, -0.839612186, 0.0457400791,   1.29999995
   1286, -0.784825802, -0.0766975358,   1.29999995
   1287,  0.829983056, 0.0493127294,   1.29999995
   1288,  0.665597022, 0.0122219762,   1.29999995
   1289, -0.824999988,  0.129903808,   1.39999998
   1290, -0.879903793,  0.075000003,   1.39999998
   1291, -0.899999976,           0.,   1.39999998
   1292, -0.879903793, -0.075000003,   1.39999998
   1293, -0.824999988, -0.129903808,   1.39999998
   1294,        -0.75,  0.150000006,   1.39999998
   1295,        -0.75, -0.150000006,   1.39999998
   1296,         0.75,  0.150000006,   1.39999998
   1297,  0.807402492,  0.138581932,   1.39999998
   1298,  0.888581932, 0.0574025139,   1.39999998
   1299,  0.899999976,           0.,   1.39999998
   1300,  0.888581932, -0.0574025139,   1.39999998
   1301,  0.807402492, -0.138581932,   1.39999998
   1302,         0.75, -0.150000006,   1.39999998
   1303, -0.649999976,  0.150000006,   1.39999998
   1304, -0.550000012,  0.150000006,   1.39999998
   1305, -0.449999988,  0.150000006,   1.39999998
   1306, -0.349999994,  0.150000006,   1.39999998
   1307,        -0.25,  0.150000006,   1.39999998
   1308, -0.150000006,  0.150000006,   1.39999998
   1309, -0.0500000007,  0.150000006,   1.39999998
   1310, 0.0500000007,  0.150000006,   1.39999998
   1311,  0.150000006,  0.150000006,   1.39999998
   1312,         0.25,  0.150000006,   1.39999998
   1313,  0.349999994,  0.150000006,   1.39999998
   1314,  0.449999988,  0.150000006,   1.39999998
   1315,  0.550000012,  0.150000006,   1.39999998
   1316,  0.649999976,  0.150000006,   1.39999998
   1317,  0.856065989,  0.106066018,   1.39999998
   1318,  0.856065989, -0.106066018,   1.39999998
   1319, -0.649999976, -0.150000006,   1.39999998
   1320, -0.550000012, -0.150000006,   1.39999998
   1321, -0.449999988, -0.150000006,   1.39999998
   1322, -0.349999994, -0.150000006,   1.39999998
   1323,        -0.25, -0.150000006,   1.39999998
   1324, -0.150000006, -0.150000006,   1.39999998
   1325, -0.0500000007, -0.150000006,   1.39999998
   1326, 0.0500000007, -0.150000006,   1.39999998
   1327,  0.150000006, -0.150000006,   1.39999998
   1328,         0.25, -0.150000006,   1.39999998
   1329,  0.349999994, -0.150000006,   1.39999998
   1330,  0.449999988, -0.150000006,   1.39999998
   1331,  0.550000012, -0.150000006,   1.39999998
   1332,  0.649999976, -0.150000006,   1.39999998
   1333,  0.832925498, -0.0149648422,   1.39999998
   1334,  0.784100533, 0.0628456771,   1.39999998
   1335,  0.729406416, 0.0743573606,   1.39999998
   1336, -0.725353241, -0.0839191377,   1.39999998
   1337, -0.802840471, -0.0231915358,   1.39999998
   1338, -0.793433845,  0.055117581,   1.39999998
   1339,  0.777760208, -0.00484846393,   1.39999998
   1340, -0.718149543, 0.0575515591,   1.39999998
   1341,  0.779690742, -0.0679016784,   1.39999998
   1342,  0.858609617, 0.0387705304,   1.39999998
   1343,  0.720747471, -0.0668375567,   1.39999998
   1344,  0.652115285, 0.0776163116,   1.39999998
   1345, -0.713731468, -0.0208027884,   1.39999998
   1346, -0.621186674, 0.0516216531,   1.39999998
   1347,  0.621709466, -0.0393298343,   1.39999998
   1348, -0.656531751, -0.0975037366,   1.39999998
   1349,  -0.51899457, 0.0494230501,   1.39999998
   1350, -0.417587906, 0.0494504161,   1.39999998
   1351, -0.316909552, 0.0495560504,   1.39999998
   1352, -0.216774106, 0.0496912152,   1.39999998
   1353, -0.116735026, 0.0497531854,   1.39999998
   1354, -0.016591765, 0.0497845225,   1.39999998
   1355, 0.0833239034, 0.0493216105,   1.39999998
   1356,  0.183342233, 0.0492441319,   1.39999998
   1357,  0.283334643,  0.049797222,   1.39999998
   1358, -0.384422302, -0.0491131209,   1.39999998
   1359, -0.283576399, -0.0490349717,   1.39999998
   1360, -0.183385685, -0.0489701368,   1.39999998
   1361, -0.0833504274, -0.0489429086,   1.39999998
   1362, 0.0166790728, -0.0493756421,   1.39999998
   1363,  0.116620295, -0.0496055074,   1.39999998
   1364,  0.216718107, -0.0496858284,   1.39999998
   1365,  0.316866845, -0.0490500629,   1.39999998
   1366, -0.602415204, -0.050688412,   1.39999998
   1367,  0.383211523, 0.0513742641,   1.39999998
   1368,  0.481736064, 0.0548581183,   1.39999998
   1369,  0.572274268, 0.0640596077,   1.39999998
   1370, -0.488438696, -0.0494441353,   1.39999998
   1371,  0.417243272, -0.0475444123,   1.39999998
   1372,  0.518074453, -0.0447730944,   1.39999998
   1373,  0.723617315, 0.00201012497,   1.39999998
   1374,  0.863923967, 0.00721039157,   1.39999998
   1375,  0.820430756, -0.0619703084,   1.39999998
   1376, -0.847279072, 0.00760738086,   1.39999998
   1377, -0.839612186, 0.0457400791,   1.39999998
   1378, -0.784825802, -0.0766975358,   1.39999998
   1379,  0.829983056, 0.0493127294,   1.39999998
   1380,  0.665597022, 0.0122219762,   1.39999998
   1381, -0.824999988,  0.129903808,          1.5
   1382, -0.879903793,  0.075000003,          1.5
   1383, -0.899999976,           0.,          1.5
   1384, -0.879903793, -0.075000003,          1.5
   1385, -0.824999988, -0.129903808,          1.5
   1386,        -0.75,  0.150000006,          1.5
   1387,        -0.75, -0.150000006,          1.5
   1388,         0.75,  0.150000006,          1.5
   1389,  0.807402492,  0.138581932,          1.5
   1390,  0.888581932, 0.0574025139,          1.5
   1391,  0.899999976,           0.,          1.5
   1392,  0.888581932, -0.0574025139,          1.5
   1393,  0.807402492, -0.138581932,          1.5
   1394,         0.75, -0.150000006,          1.5
   1395, -0.649999976,  0.150000006,          1.5
   1396, -0.550000012,  0.150000006,          1.5
   1397, -0.449999988,  0.150000006,          1.5
   1398, -0.349999994,  0.150000006,          1.5
   1399,        -0.25,  0.150000006,          1.5
   1400, -0.150000006,  0.150000006,          1.5
   1401, -0.0500000007,  0.150000006,          1.5
   1402, 0.0500000007,  0.150000006,          1.5
   1403,  0.150000006,  0.150000006,          1.5
   1404,         0.25,  0.150000006,          1.5
   1405,  0.349999994,  0.150000006,          1.5
   1406,  0.449999988,  0.150000006,          1.5
   1407,  0.550000012,  0.150000006,          1.5
   1408,  0.649999976,  0.150000006,          1.5
   1409,  0.856065989,  0.106066018,          1.5
   1410,  0.856065989, -0.106066018,          1.5
   1411, -0.649999976, -0.150000006,          1.5
   1412, -0.550000012, -0.150000006,          1.5
   1413, -0.449999988, -0.150000006,          1.5
   1414, -0.349999994, -0.150000006,          1.5
   1415,        -0.25, -0.150000006,          1.5
   1416, -0.150000006, -0.150000006,          1.5
   1417, -0.0500000007, -0.150000006,          1.5
   1418, 0.0500000007, -0.150000006,          1.5
   1419,  0.150000006, -0.150000006,          1.5
   1420,         0.25, -0.150000006,          1.5
   1421,  0.349999994, -0.150000006,          1.5
   1422,  0.449999988, -0.150000006,          1.5
   1423,  0.550000012, -0.150000006,          1.5
   1424,  0.649999976, -0.150000006,          1.5
   1425,  0.832925498, -0.0149648422,          1.5
   1426,  0.784100533, 0.0628456771,          1.5
   1427,  0.729406416, 0.0743573606,          1.5
   1428, -0.725353241, -0.0839191377,          1.5
   1429, -0.802840471, -0.0231915358,          1.5
   1430, -0.793433845,  0.055117581,          1.5
   1431,  0.777760208, -0.00484846393,          1.5
   1432, -0.718149543, 0.0575515591,          1.5
   1433,  0.779690742, -0.0679016784,          1.5
   1434,  0.858609617, 0.0387705304,          1.5
   1435,  0.720747471, -0.0668375567,          1.5
   1436,  0.652115285, 0.0776163116,          1.5
   1437, -0.713731468, -0.0208027884,          1.5
   1438, -0.621186674, 0.0516216531,          1.5
   1439,  0.621709466, -0.0393298343,          1.5
   1440, -0.656531751, -0.0975037366,          1.5
   1441,  -0.51899457, 0.0494230501,          1.5
   1442, -0.417587906, 0.0494504161,          1.5
   1443, -0.316909552, 0.0495560504,          1.5
   1444, -0.216774106, 0.0496912152,          1.5
   1445, -0.116735026, 0.0497531854,          1.5
   1446, -0.016591765, 0.0497845225,          1.5
   1447, 0.0833239034, 0.0493216105,          1.5
   1448,  0.183342233, 0.0492441319,          1.5
   1449,  0.283334643,  0.049797222,          1.5
   1450, -0.384422302, -0.0491131209,          1.5
   1451, -0.283576399, -0.0490349717,          1.5
   1452, -0.183385685, -0.0489701368,          1.5
   1453, -0.0833504274, -0.0489429086,          1.5
   1454, 0.0166790728, -0.0493756421,          1.5
   1455,  0.116620295, -0.0496055074,          1.5
   1456,  0.216718107, -0.0496858284,          1.5
   1457,  0.316866845, -0.0490500629,          1.5
   1458, -0.602415204, -0.050688412,          1.5
   1459,  0.383211523, 0.0513742641,          1.5
   1460,  0.481736064, 0.0548581183,          1.5
   1461,  0.572274268, 0.0640596077,          1.5
   1462, -0.488438696, -0.0494441353,          1.5
   1463,  0.417243272, -0.0475444123,          1.5
   1464,  0.518074453, -0.0447730944,          1.5
   1465,  0.723617315, 0.00201012497,          1.5
   1466,  0.863923967, 0.00721039157,          1.5
   1467,  0.820430756, -0.0619703084,          1.5
   1468, -0.847279072, 0.00760738086,          1.5
   1469, -0.839612186, 0.0457400791,          1.5
   1470, -0.784825802, -0.0766975358,          1.5
   1471,  0.829983056, 0.0493127294,          1.5
   1472,  0.665597022, 0.0122219762,          1.5
   1473, -0.824999988,  0.129903808,   1.60000002
   1474, -0.879903793,  0.075000003,   1.60000002
   1475, -0.899999976,           0.,   1.60000002
   1476, -0.879903793, -0.075000003,   1.60000002
   1477, -0.824999988, -0.129903808,   1.60000002
   1478,        -0.75,  0.150000006,   1.60000002
   1479,        -0.75, -0.150000006,   1.60000002
   1480,         0.75,  0.150000006,   1.60000002
   1481,  0.807402492,  0.138581932,   1.60000002
   1482,  0.888581932, 0.0574025139,   1.60000002
   1483,  0.899999976,           0.,   1.60000002
   1484,  0.888581932, -0.0574025139,   1.60000002
   1485,  0.807402492, -0.138581932,   1.60000002
   1486,         0.75, -0.150000006,   1.60000002
   1487, -0.649999976,  0.150000006,   1.60000002
   1488, -0.550000012,  0.150000006,   1.60000002
   1489, -0.449999988,  0.150000006,   1.60000002
   1490, -0.349999994,  0.150000006,   1.60000002
   1491,        -0.25,  0.150000006,   1.60000002
   1492, -0.150000006,  0.150000006,   1.60000002
   1493, -0.0500000007,  0.150000006,   1.60000002
   1494, 0.0500000007,  0.150000006,   1.60000002
   1495,  0.150000006,  0.150000006,   1.60000002
   1496,         0.25,  0.150000006,   1.60000002
   1497,  0.349999994,  0.150000006,   1.60000002
   1498,  0.449999988,  0.150000006,   1.60000002
   1499,  0.550000012,  0.150000006,   1.60000002
   1500,  0.649999976,  0.150000006,   1.60000002
   1501,  0.856065989,  0.106066018,   1.60000002
   1502,  0.856065989, -0.106066018,   1.60000002
   1503, -0.649999976, -0.150000006,   1.60000002
   1504, -0.550000012, -0.150000006,   1.60000002
   1505, -0.449999988, -0.150000006,   1.60000002
   1506, -0.349999994, -0.150000006,   1.60000002
   1507,        -0.25, -0.150000006,   1.60000002
   1508, -0.150000006, -0.150000006,   1.60000002
   1509, -0.0500000007, -0.150000006,   1.60000002
   1510, 0.0500000007, -0.150000006,   1.60000002
   1511,  0.150000006, -0.150000006,   1.60000002
   1512,         0.25, -0.150000006,   1.60000002
   1513,  0.349999994, -0.150000006,   1.60000002
   1514,  0.449999988, -0.150000006,   1.60000002
   1515,  0.550000012, -0.150000006,   1.60000002
   1516,  0.649999976, -0.150000006,   1.60000002
   1517,  0.832925498, -0.0149648422,   1.60000002
   1518,  0.784100533, 0.0628456771,   1.60000002
   1519,  0.729406416, 0.0743573606,   1.60000002
   1520, -0.725353241, -0.0839191377,   1.60000002
   1521, -0.802840471, -0.0231915358,   1.60000002
   1522, -0.793433845,  0.055117581,   1.60000002
   1523,  0.777760208, -0.00484846393,   1.60000002
   1524, -0.718149543, 0.0575515591,   1.60000002
   1525,  0.779690742, -0.0679016784,   1.60000002
   1526,  0.858609617, 0.0387705304,   1.60000002
   1527,  0.720747471, -0.0668375567,   1.60000002
   1528,  0.652115285, 0.0776163116,   1.60000002
   1529, -0.713731468, -0.0208027884,   1.60000002
   1530, -0.621186674, 0.0516216531,   1.60000002
   1531,  0.621709466, -0.0393298343,   1.60000002
   1532, -0.656531751, -0.0975037366,   1.60000002
   1533,  -0.51899457, 0.0494230501,   1.60000002
   1534, -0.417587906, 0.0494504161,   1.60000002
   1535, -0.316909552, 0.0495560504,   1.60000002
   1536, -0.216774106, 0.0496912152,   1.60000002
   1537, -0.116735026, 0.0497531854,   1.60000002
   1538, -0.016591765, 0.0497845225,   1.60000002
   1539, 0.0833239034, 0.0493216105,   1.60000002
   1540,  0.183342233, 0.0492441319,   1.60000002
   1541,  0.283334643,  0.049797222,   1.60000002
   1542, -0.384422302, -0.0491131209,   1.60000002
   1543, -0.283576399, -0.0490349717,   1.60000002
   1544, -0.183385685, -0.0489701368,   1.60000002
   1545, -0.0833504274, -0.0489429086,   1.60000002
   1546, 0.0166790728, -0.0493756421,   1.60000002
   1547,  0.116620295, -0.0496055074,   1.60000002
   1548,  0.216718107, -0.0496858284,   1.60000002
   1549,  0.316866845, -0.0490500629,   1.60000002
   1550, -0.602415204, -0.050688412,   1.60000002
   1551,  0.383211523, 0.0513742641,   1.60000002
   1552,  0.481736064, 0.0548581183,   1.60000002
   1553,  0.572274268, 0.0640596077,   1.60000002
   1554, -0.488438696, -0.0494441353,   1.60000002
   1555,  0.417243272, -0.0475444123,   1.60000002
   1556,  0.518074453, -0.0447730944,   1.60000002
   1557,  0.723617315, 0.00201012497,   1.60000002
   1558,  0.863923967, 0.00721039157,   1.60000002
   1559,  0.820430756, -0.0619703084,   1.60000002
   1560, -0.847279072, 0.00760738086,   1.60000002
   1561, -0.839612186, 0.0457400791,   1.60000002
   1562, -0.784825802, -0.0766975358,   1.60000002
   1563,  0.829983056, 0.0493127294,   1.60000002
   1564,  0.665597022, 0.0122219762,   1.60000002
   1565, -0.824999988,  0.129903808,   1.70000005
   1566, -0.879903793,  0.075000003,   1.70000005
   1567, -0.899999976,           0.,   1.70000005
   1568, -0.879903793, -0.075000003,   1.70000005
   1569, -0.824999988, -0.129903808,   1.70000005
   1570,        -0.75,  0.150000006,   1.70000005
   1571,        -0.75, -0.150000006,   1.70000005
   1572,         0.75,  0.150000006,   1.70000005
   1573,  0.807402492,  0.138581932,   1.70000005
   1574,  0.888581932, 0.0574025139,   1.70000005
   1575,  0.899999976,           0.,   1.70000005
   1576,  0.888581932, -0.0574025139,   1.70000005
   1577,  0.807402492, -0.138581932,   1.70000005
   1578,         0.75, -0.150000006,   1.70000005
   1579, -0.649999976,  0.150000006,   1.70000005
   1580, -0.550000012,  0.150000006,   1.70000005
   1581, -0.449999988,  0.150000006,   1.70000005
   1582, -0.349999994,  0.150000006,   1.70000005
   1583,        -0.25,  0.150000006,   1.70000005
   1584, -0.150000006,  0.150000006,   1.70000005
   1585, -0.0500000007,  0.150000006,   1.70000005
   1586, 0.0500000007,  0.150000006,   1.70000005
   1587,  0.150000006,  0.150000006,   1.70000005
   1588,         0.25,  0.150000006,   1.70000005
   1589,  0.349999994,  0.150000006,   1.70000005
   1590,  0.449999988,  0.150000006,   1.70000005
   1591,  0.550000012,  0.150000006,   1.70000005
   1592,  0.649999976,  0.150000006,   1.70000005
   1593,  0.856065989,  0.106066018,   1.70000005
   1594,  0.856065989, -0.106066018,   1.70000005
   1595, -0.649999976, -0.150000006,   1.70000005
   1596, -0.550000012, -0.150000006,   1.70000005
   1597, -0.449999988, -0.150000006,   1.70000005
   1598, -0.349999994, -0.150000006,   1.70000005
   1599,        -0.25, -0.150000006,   1.70000005
   1600, -0.150000006, -0.150000006,   1.70000005
   1601, -0.0500000007, -0.150000006,   1.70000005
   1602, 0.0500000007, -0.150000006,   1.70000005
   1603,  0.150000006, -0.150000006,   1.70000005
   1604,         0.25, -0.150000006,   1.70000005
   1605,  0.349999994, -0.150000006,   1.70000005
   1606,  0.449999988, -0.150000006,   1.70000005
   1607,  0.550000012, -0.150000006,   1.70000005
   1608,  0.649999976, -0.150000006,   1.70000005
   1609,  0.832925498, -0.0149648422,   1.70000005
   1610,  0.784100533, 0.0628456771,   1.70000005
   1611,  0.729406416, 0.0743573606,   1.70000005
   1612, -0.725353241, -0.0839191377,   1.70000005
   1613, -0.802840471, -0.0231915358,   1.70000005
   1614, -0.793433845,  0.055117581,   1.70000005
   1615,  0.777760208, -0.00484846393,   1.70000005
   1616, -0.718149543, 0.0575515591,   1.70000005
   1617,  0.779690742, -0.0679016784,   1.70000005
   1618,  0.858609617, 0.0387705304,   1.70000005
   1619,  0.720747471, -0.0668375567,   1.70000005
   1620,  0.652115285, 0.0776163116,   1.70000005
   1621, -0.713731468, -0.0208027884,   1.70000005
   1622, -0.621186674, 0.0516216531,   1.70000005
   1623,  0.621709466, -0.0393298343,   1.70000005
   1624, -0.656531751, -0.0975037366,   1.70000005
   1625,  -0.51899457, 0.0494230501,   1.70000005
   1626, -0.417587906, 0.0494504161,   1.70000005
   1627, -0.316909552, 0.0495560504,   1.70000005
   1628, -0.216774106, 0.0496912152,   1.70000005
   1629, -0.116735026, 0.0497531854,   1.70000005
   1630, -0.016591765, 0.0497845225,   1.70000005
   1631, 0.0833239034, 0.0493216105,   1.70000005
   1632,  0.183342233, 0.0492441319,   1.70000005
   1633,  0.283334643,  0.049797222,   1.70000005
   1634, -0.384422302, -0.0491131209,   1.70000005
   1635, -0.283576399, -0.0490349717,   1.70000005
   1636, -0.183385685, -0.0489701368,   1.70000005
   1637, -0.0833504274, -0.0489429086,   1.70000005
   1638, 0.0166790728, -0.0493756421,   1.70000005
   1639,  0.116620295, -0.0496055074,   1.70000005
   1640,  0.216718107, -0.0496858284,   1.70000005
   1641,  0.316866845, -0.0490500629,   1.70000005
   1642, -0.602415204, -0.050688412,   1.70000005
   1643,  0.383211523, 0.0513742641,   1.70000005
   1644,  0.481736064, 0.0548581183,   1.70000005
   1645,  0.572274268, 0.0640596077,   1.70000005
   1646, -0.488438696, -0.0494441353,   1.70000005
   1647,  0.417243272, -0.0475444123,   1.70000005
   1648,  0.518074453, -0.0447730944,   1.70000005
   1649,  0.723617315, 0.00201012497,   1.70000005
   1650,  0.863923967, 0.00721039157,   1.70000005
   1651,  0.820430756, -0.0619703084,   1.70000005
   1652, -0.847279072, 0.00760738086,   1.70000005
   1653, -0.839612186, 0.0457400791,   1.70000005
   1654, -0.784825802, -0.0766975358,   1.70000005
   1655,  0.829983056, 0.0493127294,   1.70000005
   1656,  0.665597022, 0.0122219762,   1.70000005
   1657, -0.824999988,  0.129903808,   1.79999995
   1658, -0.879903793,  0.075000003,   1.79999995
   1659, -0.899999976,           0.,   1.79999995
   1660, -0.879903793, -0.075000003,   1.79999995
   1661, -0.824999988, -0.129903808,   1.79999995
   1662,        -0.75,  0.150000006,   1.79999995
   1663,        -0.75, -0.150000006,   1.79999995
   1664,         0.75,  0.150000006,   1.79999995
   1665,  0.807402492,  0.138581932,   1.79999995
   1666,  0.888581932, 0.0574025139,   1.79999995
   1667,  0.899999976,           0.,   1.79999995
   1668,  0.888581932, -0.0574025139,   1.79999995
   1669,  0.807402492, -0.138581932,   1.79999995
   1670,         0.75, -0.150000006,   1.79999995
   1671, -0.649999976,  0.150000006,   1.79999995
   1672, -0.550000012,  0.150000006,   1.79999995
   1673, -0.449999988,  0.150000006,   1.79999995
   1674, -0.349999994,  0.150000006,   1.79999995
   1675,        -0.25,  0.150000006,   1.79999995
   1676, -0.150000006,  0.150000006,   1.79999995
   1677, -0.0500000007,  0.150000006,   1.79999995
   1678, 0.0500000007,  0.150000006,   1.79999995
   1679,  0.150000006,  0.150000006,   1.79999995
   1680,         0.25,  0.150000006,   1.79999995
   1681,  0.349999994,  0.150000006,   1.79999995
   1682,  0.449999988,  0.150000006,   1.79999995
   1683,  0.550000012,  0.150000006,   1.79999995
   1684,  0.649999976,  0.150000006,   1.79999995
   1685,  0.856065989,  0.106066018,   1.79999995
   1686,  0.856065989, -0.106066018,   1.79999995
   1687, -0.649999976, -0.150000006,   1.79999995
   1688, -0.550000012, -0.150000006,   1.79999995
   1689, -0.449999988, -0.150000006,   1.79999995
   1690, -0.349999994, -0.150000006,   1.79999995
   1691,        -0.25, -0.150000006,   1.79999995
   1692, -0.150000006, -0.150000006,   1.79999995
   1693, -0.0500000007, -0.150000006,   1.79999995
   1694, 0.0500000007, -0.150000006,   1.79999995
   1695,  0.150000006, -0.150000006,   1.79999995
   1696,         0.25, -0.150000006,   1.79999995
   1697,  0.349999994, -0.150000006,   1.79999995
   1698,  0.449999988, -0.150000006,   1.79999995
   1699,  0.550000012, -0.150000006,   1.79999995
   1700,  0.649999976, -0.150000006,   1.79999995
   1701,  0.832925498, -0.0149648422,   1.79999995
   1702,  0.784100533, 0.0628456771,   1.79999995
   1703,  0.729406416, 0.0743573606,   1.79999995
   1704, -0.725353241, -0.0839191377,   1.79999995
   1705, -0.802840471, -0.0231915358,   1.79999995
   1706, -0.793433845,  0.055117581,   1.79999995
   1707,  0.777760208, -0.00484846393,   1.79999995
   1708, -0.718149543, 0.0575515591,   1.79999995
   1709,  0.779690742, -0.0679016784,   1.79999995
   1710,  0.858609617, 0.0387705304,   1.79999995
   1711,  0.720747471, -0.0668375567,   1.79999995
   1712,  0.652115285, 0.0776163116,   1.79999995
   1713, -0.713731468, -0.0208027884,   1.79999995
   1714, -0.621186674, 0.0516216531,   1.79999995
   1715,  0.621709466, -0.0393298343,   1.79999995
   1716, -0.656531751, -0.0975037366,   1.79999995
   1717,  -0.51899457, 0.0494230501,   1.79999995
   1718, -0.417587906, 0.0494504161,   1.79999995
   1719, -0.316909552, 0.0495560504,   1.79999995
   1720, -0.216774106, 0.0496912152,   1.79999995
   1721, -0.116735026, 0.0497531854,   1.79999995
   1722, -0.016591765, 0.0497845225,   1.79999995
   1723, 0.0833239034, 0.0493216105,   1.79999995
   1724,  0.183342233, 0.0492441319,   1.79999995
   1725,  0.283334643,  0.049797222,   1.79999995
   1726, -0.384422302, -0.0491131209,   1.79999995
   1727, -0.283576399, -0.0490349717,   1.79999995
   1728, -0.183385685, -0.0489701368,   1.79999995
   1729, -0.0833504274, -0.0489429086,   1.79999995
   1730, 0.0166790728, -0.0493756421,   1.79999995
   1731,  0.116620295, -0.0496055074,   1.79999995
   1732,  0.216718107, -0.0496858284,   1.79999995
   1733,  0.316866845, -0.0490500629,   1.79999995
   1734, -0.602415204, -0.050688412,   1.79999995
   1735,  0.383211523, 0.0513742641,   1.79999995
   1736,  0.481736064, 0.0548581183,   1.79999995
   1737,  0.572274268, 0.0640596077,   1.79999995
   1738, -0.488438696, -0.0494441353,   1.79999995
   1739,  0.417243272, -0.0475444123,   1.79999995
   1740,  0.518074453, -0.0447730944,   1.79999995
   1741,  0.723617315, 0.00201012497,   1.79999995
   1742,  0.863923967, 0.00721039157,   1.79999995
   1743,  0.820430756, -0.0619703084,   1.79999995
   1744, -0.847279072, 0.00760738086,   1.79999995
   1745, -0.839612186, 0.0457400791,   1.79999995
   1746, -0.784825802, -0.0766975358,   1.79999995
   1747,  0.829983056, 0.0493127294,   1.79999995
   1748,  0.665597022, 0.0122219762,   1.79999995
   1749, -0.824999988,  0.129903808,   1.89999998
   1750, -0.879903793,  0.075000003,   1.89999998
   1751, -0.899999976,           0.,   1.89999998
   1752, -0.879903793, -0.075000003,   1.89999998
   1753, -0.824999988, -0.129903808,   1.89999998
   1754,        -0.75,  0.150000006,   1.89999998
   1755,        -0.75, -0.150000006,   1.89999998
   1756,         0.75,  0.150000006,   1.89999998
   1757,  0.807402492,  0.138581932,   1.89999998
   1758,  0.888581932, 0.0574025139,   1.89999998
   1759,  0.899999976,           0.,   1.89999998
   1760,  0.888581932, -0.0574025139,   1.89999998
   1761,  0.807402492, -0.138581932,   1.89999998
   1762,         0.75, -0.150000006,   1.89999998
   1763, -0.649999976,  0.150000006,   1.89999998
   1764, -0.550000012,  0.150000006,   1.89999998
   1765, -0.449999988,  0.150000006,   1.89999998
   1766, -0.349999994,  0.150000006,   1.89999998
   1767,        -0.25,  0.150000006,   1.89999998
   1768, -0.150000006,  0.150000006,   1.89999998
   1769, -0.0500000007,  0.150000006,   1.89999998
   1770, 0.0500000007,  0.150000006,   1.89999998
   1771,  0.150000006,  0.150000006,   1.89999998
   1772,         0.25,  0.150000006,   1.89999998
   1773,  0.349999994,  0.150000006,   1.89999998
   1774,  0.449999988,  0.150000006,   1.89999998
   1775,  0.550000012,  0.150000006,   1.89999998
   1776,  0.649999976,  0.150000006,   1.89999998
   1777,  0.856065989,  0.106066018,   1.89999998
   1778,  0.856065989, -0.106066018,   1.89999998
   1779, -0.649999976, -0.150000006,   1.89999998
   1780, -0.550000012, -0.150000006,   1.89999998
   1781, -0.449999988, -0.150000006,   1.89999998
   1782, -0.349999994, -0.150000006,   1.89999998
   1783,        -0.25, -0.150000006,   1.89999998
   1784, -0.150000006, -0.150000006,   1.89999998
   1785, -0.0500000007, -0.150000006,   1.89999998
   1786, 0.0500000007, -0.150000006,   1.89999998
   1787,  0.150000006, -0.150000006,   1.89999998
   1788,         0.25, -0.150000006,   1.89999998
   1789,  0.349999994, -0.150000006,   1.89999998
   1790,  0.449999988, -0.150000006,   1.89999998
   1791,  0.550000012, -0.150000006,   1.89999998
   1792,  0.649999976, -0.150000006,   1.89999998
   1793,  0.832925498, -0.0149648422,   1.89999998
   1794,  0.784100533, 0.0628456771,   1.89999998
   1795,  0.729406416, 0.0743573606,   1.89999998
   1796, -0.725353241, -0.0839191377,   1.89999998
   1797, -0.802840471, -0.0231915358,   1.89999998
   1798, -0.793433845,  0.055117581,   1.89999998
   1799,  0.777760208, -0.00484846393,   1.89999998
   1800, -0.718149543, 0.0575515591,   1.89999998
   1801,  0.779690742, -0.0679016784,   1.89999998
   1802,  0.858609617, 0.0387705304,   1.89999998
   1803,  0.720747471, -0.0668375567,   1.89999998
   1804,  0.652115285, 0.0776163116,   1.89999998
   1805, -0.713731468, -0.0208027884,   1.89999998
   1806, -0.621186674, 0.0516216531,   1.89999998
   1807,  0.621709466, -0.0393298343,   1.89999998
   1808, -0.656531751, -0.0975037366,   1.89999998
   1809,  -0.51899457, 0.0494230501,   1.89999998
   1810, -0.417587906, 0.0494504161,   1.89999998
   1811, -0.316909552, 0.0495560504,   1.89999998
   1812, -0.216774106, 0.0496912152,   1.89999998
   1813, -0.116735026, 0.0497531854,   1.89999998
   1814, -0.016591765, 0.0497845225,   1.89999998
   1815, 0.0833239034, 0.0493216105,   1.89999998
   1816,  0.183342233, 0.0492441319,   1.89999998
   1817,  0.283334643,  0.049797222,   1.89999998
   1818, -0.384422302, -0.0491131209,   1.89999998
   1819, -0.283576399, -0.0490349717,   1.89999998
   1820, -0.183385685, -0.0489701368,   1.89999998
   1821, -0.0833504274, -0.0489429086,   1.89999998
   1822, 0.0166790728, -0.0493756421,   1.89999998
   1823,  0.116620295, -0.0496055074,   1.89999998
   1824,  0.216718107, -0.0496858284,   1.89999998
   1825,  0.316866845, -0.0490500629,   1.89999998
   1826, -0.602415204, -0.050688412,   1.89999998
   1827,  0.383211523, 0.0513742641,   1.89999998
   1828,  0.481736064, 0.0548581183,   1.89999998
   1829,  0.572274268, 0.0640596077,   1.89999998
   1830, -0.488438696, -0.0494441353,   1.89999998
   1831,  0.417243272, -0.0475444123,   1.89999998
   1832,  0.518074453, -0.0447730944,   1.89999998
   1833,  0.723617315, 0.00201012497,   1.89999998
   1834,  0.863923967, 0.00721039157,   1.89999998
   1835,  0.820430756, -0.0619703084,   1.89999998
   1836, -0.847279072, 0.00760738086,   1.89999998
   1837, -0.839612186, 0.0457400791,   1.89999998
   1838, -0.784825802, -0.0766975358,   1.89999998
   1839,  0.829983056, 0.0493127294,   1.89999998
   1840,  0.665597022, 0.0122219762,   1.89999998
   1841, -0.824999988,  0.129903808,           2.
   1842, -0.879903793,  0.075000003,           2.
   1843, -0.899999976,           0.,           2.
   1844, -0.879903793, -0.075000003,           2.
   1845, -0.824999988, -0.129903808,           2.
   1846,        -0.75,  0.150000006,           2.
   1847,        -0.75, -0.150000006,           2.
   1848,         0.75,  0.150000006,           2.
   1849,  0.807402492,  0.138581932,           2.
   1850,  0.888581932, 0.0574025139,           2.
   1851,  0.899999976,           0.,           2.
   1852,  0.888581932, -0.0574025139,           2.
   1853,  0.807402492, -0.138581932,           2.
   1854,         0.75, -0.150000006,           2.
   1855, -0.649999976,  0.150000006,           2.
   1856, -0.550000012,  0.150000006,           2.
   1857, -0.449999988,  0.150000006,           2.
   1858, -0.349999994,  0.150000006,           2.
   1859,        -0.25,  0.150000006,           2.
   1860, -0.150000006,  0.150000006,           2.
   1861, -0.0500000007,  0.150000006,           2.
   1862, 0.0500000007,  0.150000006,           2.
   1863,  0.150000006,  0.150000006,           2.
   1864,         0.25,  0.150000006,           2.
   1865,  0.349999994,  0.150000006,           2.
   1866,  0.449999988,  0.150000006,           2.
   1867,  0.550000012,  0.150000006,           2.
   1868,  0.649999976,  0.150000006,           2.
   1869,  0.856065989,  0.106066018,           2.
   1870,  0.856065989, -0.106066018,           2.
   1871, -0.649999976, -0.150000006,           2.
   1872, -0.550000012, -0.150000006,           2.
   1873, -0.449999988, -0.150000006,           2.
   1874, -0.349999994, -0.150000006,           2.
   1875,        -0.25, -0.150000006,           2.
   1876, -0.150000006, -0.150000006,           2.
   1877, -0.0500000007, -0.150000006,           2.
   1878, 0.0500000007, -0.150000006,           2.
   1879,  0.150000006, -0.150000006,           2.
   1880,         0.25, -0.150000006,           2.
   1881,  0.349999994, -0.150000006,           2.
   1882,  0.449999988, -0.150000006,           2.
   1883,  0.550000012, -0.150000006,           2.
   1884,  0.649999976, -0.150000006,           2.
   1885,  0.832925498, -0.0149648422,           2.
   1886,  0.784100533, 0.0628456771,           2.
   1887,  0.729406416, 0.0743573606,           2.
   1888, -0.725353241, -0.0839191377,           2.
   1889, -0.802840471, -0.0231915358,           2.
   1890, -0.793433845,  0.055117581,           2.
   1891,  0.777760208, -0.00484846393,           2.
   1892, -0.718149543, 0.0575515591,           2.
   1893,  0.779690742, -0.0679016784,           2.
   1894,  0.858609617, 0.0387705304,           2.
   1895,  0.720747471, -0.0668375567,           2.
   1896,  0.652115285, 0.0776163116,           2.
   1897, -0.713731468, -0.0208027884,           2.
   1898, -0.621186674, 0.0516216531,           2.
   1899,  0.621709466, -0.0393298343,           2.
   1900, -0.656531751, -0.0975037366,           2.
   1901,  -0.51899457, 0.0494230501,           2.
   1902, -0.417587906, 0.0494504161,           2.
   1903, -0.316909552, 0.0495560504,           2.
   1904, -0.216774106, 0.0496912152,           2.
   1905, -0.116735026, 0.0497531854,           2.
   1906, -0.016591765, 0.0497845225,           2.
   1907, 0.0833239034, 0.0493216105,           2.
   1908,  0.183342233, 0.0492441319,           2.
   1909,  0.283334643,  0.049797222,           2.
   1910, -0.384422302, -0.0491131209,           2.
   1911, -0.283576399, -0.0490349717,           2.
   1912, -0.183385685, -0.0489701368,           2.
   1913, -0.0833504274, -0.0489429086,           2.
   1914, 0.0166790728, -0.0493756421,           2.
   1915,  0.116620295, -0.0496055074,           2.
   1916,  0.216718107, -0.0496858284,           2.
   1917,  0.316866845, -0.0490500629,           2.
   1918, -0.602415204, -0.050688412,           2.
   1919,  0.383211523, 0.0513742641,           2.
   1920,  0.481736064, 0.0548581183,           2.
   1921,  0.572274268, 0.0640596077,           2.
   1922, -0.488438696, -0.0494441353,           2.
   1923,  0.417243272, -0.0475444123,           2.
   1924,  0.518074453, -0.0447730944,           2.
   1925,  0.723617315, 0.00201012497,           2.
   1926,  0.863923967, 0.00721039157,           2.
   1927,  0.820430756, -0.0619703084,           2.
   1928, -0.847279072, 0.00760738086,           2.
   1929, -0.839612186, 0.0457400791,           2.
   1930, -0.784825802, -0.0766975358,           2.
   1931,  0.829983056, 0.0493127294,           2.
   1932,  0.665597022, 0.0122219762,           2.
   1933, -0.824999988,  0.129903808,    2.0999999
   1934, -0.879903793,  0.075000003,    2.0999999
   1935, -0.899999976,           0.,    2.0999999
   1936, -0.879903793, -0.075000003,    2.0999999
   1937, -0.824999988, -0.129903808,    2.0999999
   1938,        -0.75,  0.150000006,    2.0999999
   1939,        -0.75, -0.150000006,    2.0999999
   1940,         0.75,  0.150000006,    2.0999999
   1941,  0.807402492,  0.138581932,    2.0999999
   1942,  0.888581932, 0.0574025139,    2.0999999
   1943,  0.899999976,           0.,    2.0999999
   1944,  0.888581932, -0.0574025139,    2.0999999
   1945,  0.807402492, -0.138581932,    2.0999999
   1946,         0.75, -0.150000006,    2.0999999
   1947, -0.649999976,  0.150000006,    2.0999999
   1948, -0.550000012,  0.150000006,    2.0999999
   1949, -0.449999988,  0.150000006,    2.0999999
   1950, -0.349999994,  0.150000006,    2.0999999
   1951,        -0.25,  0.150000006,    2.0999999
   1952, -0.150000006,  0.150000006,    2.0999999
   1953, -0.0500000007,  0.150000006,    2.0999999
   1954, 0.0500000007,  0.150000006,    2.0999999
   1955,  0.150000006,  0.150000006,    2.0999999
   1956,         0.25,  0.150000006,    2.0999999
   1957,  0.349999994,  0.150000006,    2.0999999
   1958,  0.449999988,  0.150000006,    2.0999999
   1959,  0.550000012,  0.150000006,    2.0999999
   1960,  0.649999976,  0.150000006,    2.0999999
   1961,  0.856065989,  0.106066018,    2.0999999
   1962,  0.856065989, -0.106066018,    2.0999999
   1963, -0.649999976, -0.150000006,    2.0999999
   1964, -0.550000012, -0.150000006,    2.0999999
   1965, -0.449999988, -0.150000006,    2.0999999
   1966, -0.349999994, -0.150000006,    2.0999999
   1967,        -0.25, -0.150000006,    2.0999999
   1968, -0.150000006, -0.150000006,    2.0999999
   1969, -0.0500000007, -0.150000006,    2.0999999
   1970, 0.0500000007, -0.150000006,    2.0999999
   1971,  0.150000006, -0.150000006,    2.0999999
   1972,         0.25, -0.150000006,    2.0999999
   1973,  0.349999994, -0.150000006,    2.0999999
   1974,  0.449999988, -0.150000006,    2.0999999
   1975,  0.550000012, -0.150000006,    2.0999999
   1976,  0.649999976, -0.150000006,    2.0999999
   1977,  0.832925498, -0.0149648422,    2.0999999
   1978,  0.784100533, 0.0628456771,    2.0999999
   1979,  0.729406416, 0.0743573606,    2.0999999
   1980, -0.725353241, -0.0839191377,    2.0999999
   1981, -0.802840471, -0.0231915358,    2.0999999
   1982, -0.793433845,  0.055117581,    2.0999999
   1983,  0.777760208, -0.00484846393,    2.0999999
   1984, -0.718149543, 0.0575515591,    2.0999999
   1985,  0.779690742, -0.0679016784,    2.0999999
   1986,  0.858609617, 0.0387705304,    2.0999999
   1987,  0.720747471, -0.0668375567,    2.0999999
   1988,  0.652115285, 0.0776163116,    2.0999999
   1989, -0.713731468, -0.0208027884,    2.0999999
   1990, -0.621186674, 0.0516216531,    2.0999999
   1991,  0.621709466, -0.0393298343,    2.0999999
   1992, -0.656531751, -0.0975037366,    2.0999999
   1993,  -0.51899457, 0.0494230501,    2.0999999
   1994, -0.417587906, 0.0494504161,    2.0999999
   1995, -0.316909552, 0.0495560504,    2.0999999
   1996, -0.216774106, 0.0496912152,    2.0999999
   1997, -0.116735026, 0.0497531854,    2.0999999
   1998, -0.016591765, 0.0497845225,    2.0999999
   1999, 0.0833239034, 0.0493216105,    2.0999999
   2000,  0.183342233, 0.0492441319,    2.0999999
   2001,  0.283334643,  0.049797222,    2.0999999
   2002, -0.384422302, -0.0491131209,    2.0999999
   2003, -0.283576399, -0.0490349717,    2.0999999
   2004, -0.183385685, -0.0489701368,    2.0999999
   2005, -0.0833504274, -0.0489429086,    2.0999999
   2006, 0.0166790728, -0.0493756421,    2.0999999
   2007,  0.116620295, -0.0496055074,    2.0999999
   2008,  0.216718107, -0.0496858284,    2.0999999
   2009,  0.316866845, -0.0490500629,    2.0999999
   2010, -0.602415204, -0.050688412,    2.0999999
   2011,  0.383211523, 0.0513742641,    2.0999999
   2012,  0.481736064, 0.0548581183,    2.0999999
   2013,  0.572274268, 0.0640596077,    2.0999999
   2014, -0.488438696, -0.0494441353,    2.0999999
   2015,  0.417243272, -0.0475444123,    2.0999999
   2016,  0.518074453, -0.0447730944,    2.0999999
   2017,  0.723617315, 0.00201012497,    2.0999999
   2018,  0.863923967, 0.00721039157,    2.0999999
   2019,  0.820430756, -0.0619703084,    2.0999999
   2020, -0.847279072, 0.00760738086,    2.0999999
   2021, -0.839612186, 0.0457400791,    2.0999999
   2022, -0.784825802, -0.0766975358,    2.0999999
   2023,  0.829983056, 0.0493127294,    2.0999999
   2024,  0.665597022, 0.0122219762,    2.0999999
   2025, -0.824999988,  0.129903808,   2.20000005
   2026, -0.879903793,  0.075000003,   2.20000005
   2027, -0.899999976,           0.,   2.20000005
   2028, -0.879903793, -0.075000003,   2.20000005
   2029, -0.824999988, -0.129903808,   2.20000005
   2030,        -0.75,  0.150000006,   2.20000005
   2031,        -0.75, -0.150000006,   2.20000005
   2032,         0.75,  0.150000006,   2.20000005
   2033,  0.807402492,  0.138581932,   2.20000005
   2034,  0.888581932, 0.0574025139,   2.20000005
   2035,  0.899999976,           0.,   2.20000005
   2036,  0.888581932, -0.0574025139,   2.20000005
   2037,  0.807402492, -0.138581932,   2.20000005
   2038,         0.75, -0.150000006,   2.20000005
   2039, -0.649999976,  0.150000006,   2.20000005
   2040, -0.550000012,  0.150000006,   2.20000005
   2041, -0.449999988,  0.150000006,   2.20000005
   2042, -0.349999994,  0.150000006,   2.20000005
   2043,        -0.25,  0.150000006,   2.20000005
   2044, -0.150000006,  0.150000006,   2.20000005
   2045, -0.0500000007,  0.150000006,   2.20000005
   2046, 0.0500000007,  0.150000006,   2.20000005
   2047,  0.150000006,  0.150000006,   2.20000005
   2048,         0.25,  0.150000006,   2.20000005
   2049,  0.349999994,  0.150000006,   2.20000005
   2050,  0.449999988,  0.150000006,   2.20000005
   2051,  0.550000012,  0.150000006,   2.20000005
   2052,  0.649999976,  0.150000006,   2.20000005
   2053,  0.856065989,  0.106066018,   2.20000005
   2054,  0.856065989, -0.106066018,   2.20000005
   2055, -0.649999976, -0.150000006,   2.20000005
   2056, -0.550000012, -0.150000006,   2.20000005
   2057, -0.449999988, -0.150000006,   2.20000005
   2058, -0.349999994, -0.150000006,   2.20000005
   2059,        -0.25, -0.150000006,   2.20000005
   2060, -0.150000006, -0.150000006,   2.20000005
   2061, -0.0500000007, -0.150000006,   2.20000005
   2062, 0.0500000007, -0.150000006,   2.20000005
   2063,  0.150000006, -0.150000006,   2.20000005
   2064,         0.25, -0.150000006,   2.20000005
   2065,  0.349999994, -0.150000006,   2.20000005
   2066,  0.449999988, -0.150000006,   2.20000005
   2067,  0.550000012, -0.150000006,   2.20000005
   2068,  0.649999976, -0.150000006,   2.20000005
   2069,  0.832925498, -0.0149648422,   2.20000005
   2070,  0.784100533, 0.0628456771,   2.20000005
   2071,  0.729406416, 0.0743573606,   2.20000005
   2072, -0.725353241, -0.0839191377,   2.20000005
   2073, -0.802840471, -0.0231915358,   2.20000005
   2074, -0.793433845,  0.055117581,   2.20000005
   2075,  0.777760208, -0.00484846393,   2.20000005
   2076, -0.718149543, 0.0575515591,   2.20000005
   2077,  0.779690742, -0.0679016784,   2.20000005
   2078,  0.858609617, 0.0387705304,   2.20000005
   2079,  0.720747471, -0.0668375567,   2.20000005
   2080,  0.652115285, 0.0776163116,   2.20000005
   2081, -0.713731468, -0.0208027884,   2.20000005
   2082, -0.621186674, 0.0516216531,   2.20000005
   2083,  0.621709466, -0.0393298343,   2.20000005
   2084, -0.656531751, -0.0975037366,   2.20000005
   2085,  -0.51899457, 0.0494230501,   2.20000005
   2086, -0.417587906, 0.0494504161,   2.20000005
   2087, -0.316909552, 0.0495560504,   2.20000005
   2088, -0.216774106, 0.0496912152,   2.20000005
   2089, -0.116735026, 0.0497531854,   2.20000005
   2090, -0.016591765, 0.0497845225,   2.20000005
   2091, 0.0833239034, 0.0493216105,   2.20000005
   2092,  0.183342233, 0.0492441319,   2.20000005
   2093,  0.283334643,  0.049797222,   2.20000005
   2094, -0.384422302, -0.0491131209,   2.20000005
   2095, -0.283576399, -0.0490349717,   2.20000005
   2096, -0.183385685, -0.0489701368,   2.20000005
   2097, -0.0833504274, -0.0489429086,   2.20000005
   2098, 0.0166790728, -0.0493756421,   2.20000005
   2099,  0.116620295, -0.0496055074,   2.20000005
   2100,  0.216718107, -0.0496858284,   2.20000005
   2101,  0.316866845, -0.0490500629,   2.20000005
   2102, -0.602415204, -0.050688412,   2.20000005
   2103,  0.383211523, 0.0513742641,   2.20000005
   2104,  0.481736064, 0.0548581183,   2.20000005
   2105,  0.572274268, 0.0640596077,   2.20000005
   2106, -0.488438696, -0.0494441353,   2.20000005
   2107,  0.417243272, -0.0475444123,   2.20000005
   2108,  0.518074453, -0.0447730944,   2.20000005
   2109,  0.723617315, 0.00201012497,   2.20000005
   2110,  0.863923967, 0.00721039157,   2.20000005
   2111,  0.820430756, -0.0619703084,   2.20000005
   2112, -0.847279072, 0.00760738086,   2.20000005
   2113, -0.839612186, 0.0457400791,   2.20000005
   2114, -0.784825802, -0.0766975358,   2.20000005
   2115,  0.829983056, 0.0493127294,   2.20000005
   2116,  0.665597022, 0.0122219762,   2.20000005
   2117, -0.824999988,  0.129903808,   2.29999995
   2118, -0.879903793,  0.075000003,   2.29999995
   2119, -0.899999976,           0.,   2.29999995
   2120, -0.879903793, -0.075000003,   2.29999995
   2121, -0.824999988, -0.129903808,   2.29999995
   2122,        -0.75,  0.150000006,   2.29999995
   2123,        -0.75, -0.150000006,   2.29999995
   2124,         0.75,  0.150000006,   2.29999995
   2125,  0.807402492,  0.138581932,   2.29999995
   2126,  0.888581932, 0.0574025139,   2.29999995
   2127,  0.899999976,           0.,   2.29999995
   2128,  0.888581932, -0.0574025139,   2.29999995
   2129,  0.807402492, -0.138581932,   2.29999995
   2130,         0.75, -0.150000006,   2.29999995
   2131, -0.649999976,  0.150000006,   2.29999995
   2132, -0.550000012,  0.150000006,   2.29999995
   2133, -0.449999988,  0.150000006,   2.29999995
   2134, -0.349999994,  0.150000006,   2.29999995
   2135,        -0.25,  0.150000006,   2.29999995
   2136, -0.150000006,  0.150000006,   2.29999995
   2137, -0.0500000007,  0.150000006,   2.29999995
   2138, 0.0500000007,  0.150000006,   2.29999995
   2139,  0.150000006,  0.150000006,   2.29999995
   2140,         0.25,  0.150000006,   2.29999995
   2141,  0.349999994,  0.150000006,   2.29999995
   2142,  0.449999988,  0.150000006,   2.29999995
   2143,  0.550000012,  0.150000006,   2.29999995
   2144,  0.649999976,  0.150000006,   2.29999995
   2145,  0.856065989,  0.106066018,   2.29999995
   2146,  0.856065989, -0.106066018,   2.29999995
   2147, -0.649999976, -0.150000006,   2.29999995
   2148, -0.550000012, -0.150000006,   2.29999995
   2149, -0.449999988, -0.150000006,   2.29999995
   2150, -0.349999994, -0.150000006,   2.29999995
   2151,        -0.25, -0.150000006,   2.29999995
   2152, -0.150000006, -0.150000006,   2.29999995
   2153, -0.0500000007, -0.150000006,   2.29999995
   2154, 0.0500000007, -0.150000006,   2.29999995
   2155,  0.150000006, -0.150000006,   2.29999995
   2156,         0.25, -0.150000006,   2.29999995
   2157,  0.349999994, -0.150000006,   2.29999995
   2158,  0.449999988, -0.150000006,   2.29999995
   2159,  0.550000012, -0.150000006,   2.29999995
   2160,  0.649999976, -0.150000006,   2.29999995
   2161,  0.832925498, -0.0149648422,   2.29999995
   2162,  0.784100533, 0.0628456771,   2.29999995
   2163,  0.729406416, 0.0743573606,   2.29999995
   2164, -0.725353241, -0.0839191377,   2.29999995
   2165, -0.802840471, -0.0231915358,   2.29999995
   2166, -0.793433845,  0.055117581,   2.29999995
   2167,  0.777760208, -0.00484846393,   2.29999995
   2168, -0.718149543, 0.0575515591,   2.29999995
   2169,  0.779690742, -0.0679016784,   2.29999995
   2170,  0.858609617, 0.0387705304,   2.29999995
   2171,  0.720747471, -0.0668375567,   2.29999995
   2172,  0.652115285, 0.0776163116,   2.29999995
   2173, -0.713731468, -0.0208027884,   2.29999995
   2174, -0.621186674, 0.0516216531,   2.29999995
   2175,  0.621709466, -0.0393298343,   2.29999995
   2176, -0.656531751, -0.0975037366,   2.29999995
   2177,  -0.51899457, 0.0494230501,   2.29999995
   2178, -0.417587906, 0.0494504161,   2.29999995
   2179, -0.316909552, 0.0495560504,   2.29999995
   2180, -0.216774106, 0.0496912152,   2.29999995
   2181, -0.116735026, 0.0497531854,   2.29999995
   2182, -0.016591765, 0.0497845225,   2.29999995
   2183, 0.0833239034, 0.0493216105,   2.29999995
   2184,  0.183342233, 0.0492441319,   2.29999995
   2185,  0.283334643,  0.049797222,   2.29999995
   2186, -0.384422302, -0.0491131209,   2.29999995
   2187, -0.283576399, -0.0490349717,   2.29999995
   2188, -0.183385685, -0.0489701368,   2.29999995
   2189, -0.0833504274, -0.0489429086,   2.29999995
   2190, 0.0166790728, -0.0493756421,   2.29999995
   2191,  0.116620295, -0.0496055074,   2.29999995
   2192,  0.216718107, -0.0496858284,   2.29999995
   2193,  0.316866845, -0.0490500629,   2.29999995
   2194, -0.602415204, -0.050688412,   2.29999995
   2195,  0.383211523, 0.0513742641,   2.29999995
   2196,  0.481736064, 0.0548581183,   2.29999995
   2197,  0.572274268, 0.0640596077,   2.29999995
   2198, -0.488438696, -0.0494441353,   2.29999995
   2199,  0.417243272, -0.0475444123,   2.29999995
   2200,  0.518074453, -0.0447730944,   2.29999995
   2201,  0.723617315, 0.00201012497,   2.29999995
   2202,  0.863923967, 0.00721039157,   2.29999995
   2203,  0.820430756, -0.0619703084,   2.29999995
   2204, -0.847279072, 0.00760738086,   2.29999995
   2205, -0.839612186, 0.0457400791,   2.29999995
   2206, -0.784825802, -0.0766975358,   2.29999995
   2207,  0.829983056, 0.0493127294,   2.29999995
   2208,  0.665597022, 0.0122219762,   2.29999995
   2209, -0.824999988,  0.129903808,    2.4000001
   2210, -0.879903793,  0.075000003,    2.4000001
   2211, -0.899999976,           0.,    2.4000001
   2212, -0.879903793, -0.075000003,    2.4000001
   2213, -0.824999988, -0.129903808,    2.4000001
   2214,        -0.75,  0.150000006,    2.4000001
   2215,        -0.75, -0.150000006,    2.4000001
   2216,         0.75,  0.150000006,    2.4000001
   2217,  0.807402492,  0.138581932,    2.4000001
   2218,  0.888581932, 0.0574025139,    2.4000001
   2219,  0.899999976,           0.,    2.4000001
   2220,  0.888581932, -0.0574025139,    2.4000001
   2221,  0.807402492, -0.138581932,    2.4000001
   2222,         0.75, -0.150000006,    2.4000001
   2223, -0.649999976,  0.150000006,    2.4000001
   2224, -0.550000012,  0.150000006,    2.4000001
   2225, -0.449999988,  0.150000006,    2.4000001
   2226, -0.349999994,  0.150000006,    2.4000001
   2227,        -0.25,  0.150000006,    2.4000001
   2228, -0.150000006,  0.150000006,    2.4000001
   2229, -0.0500000007,  0.150000006,    2.4000001
   2230, 0.0500000007,  0.150000006,    2.4000001
   2231,  0.150000006,  0.150000006,    2.4000001
   2232,         0.25,  0.150000006,    2.4000001
   2233,  0.349999994,  0.150000006,    2.4000001
   2234,  0.449999988,  0.150000006,    2.4000001
   2235,  0.550000012,  0.150000006,    2.4000001
   2236,  0.649999976,  0.150000006,    2.4000001
   2237,  0.856065989,  0.106066018,    2.4000001
   2238,  0.856065989, -0.106066018,    2.4000001
   2239, -0.649999976, -0.150000006,    2.4000001
   2240, -0.550000012, -0.150000006,    2.4000001
   2241, -0.449999988, -0.150000006,    2.4000001
   2242, -0.349999994, -0.150000006,    2.4000001
   2243,        -0.25, -0.150000006,    2.4000001
   2244, -0.150000006, -0.150000006,    2.4000001
   2245, -0.0500000007, -0.150000006,    2.4000001
   2246, 0.0500000007, -0.150000006,    2.4000001
   2247,  0.150000006, -0.150000006,    2.4000001
   2248,         0.25, -0.150000006,    2.4000001
   2249,  0.349999994, -0.150000006,    2.4000001
   2250,  0.449999988, -0.150000006,    2.4000001
   2251,  0.550000012, -0.150000006,    2.4000001
   2252,  0.649999976, -0.150000006,    2.4000001
   2253,  0.832925498, -0.0149648422,    2.4000001
   2254,  0.784100533, 0.0628456771,    2.4000001
   2255,  0.729406416, 0.0743573606,    2.4000001
   2256, -0.725353241, -0.0839191377,    2.4000001
   2257, -0.802840471, -0.0231915358,    2.4000001
   2258, -0.793433845,  0.055117581,    2.4000001
   2259,  0.777760208, -0.00484846393,    2.4000001
   2260, -0.718149543, 0.0575515591,    2.4000001
   2261,  0.779690742, -0.0679016784,    2.4000001
   2262,  0.858609617, 0.0387705304,    2.4000001
   2263,  0.720747471, -0.0668375567,    2.4000001
   2264,  0.652115285, 0.0776163116,    2.4000001
   2265, -0.713731468, -0.0208027884,    2.4000001
   2266, -0.621186674, 0.0516216531,    2.4000001
   2267,  0.621709466, -0.0393298343,    2.4000001
   2268, -0.656531751, -0.0975037366,    2.4000001
   2269,  -0.51899457, 0.0494230501,    2.4000001
   2270, -0.417587906, 0.0494504161,    2.4000001
   2271, -0.316909552, 0.0495560504,    2.4000001
   2272, -0.216774106, 0.0496912152,    2.4000001
   2273, -0.116735026, 0.0497531854,    2.4000001
   2274, -0.016591765, 0.0497845225,    2.4000001
   2275, 0.0833239034, 0.0493216105,    2.4000001
   2276,  0.183342233, 0.0492441319,    2.4000001
   2277,  0.283334643,  0.049797222,    2.4000001
   2278, -0.384422302, -0.0491131209,    2.4000001
   2279, -0.283576399, -0.0490349717,    2.4000001
   2280, -0.183385685, -0.0489701368,    2.4000001
   2281, -0.0833504274, -0.0489429086,    2.4000001
   2282, 0.0166790728, -0.0493756421,    2.4000001
   2283,  0.116620295, -0.0496055074,    2.4000001
   2284,  0.216718107, -0.0496858284,    2.4000001
   2285,  0.316866845, -0.0490500629,    2.4000001
   2286, -0.602415204, -0.050688412,    2.4000001
   2287,  0.383211523, 0.0513742641,    2.4000001
   2288,  0.481736064, 0.0548581183,    2.4000001
   2289,  0.572274268, 0.0640596077,    2.4000001
   2290, -0.488438696, -0.0494441353,    2.4000001
   2291,  0.417243272, -0.0475444123,    2.4000001
   2292,  0.518074453, -0.0447730944,    2.4000001
   2293,  0.723617315, 0.00201012497,    2.4000001
   2294,  0.863923967, 0.00721039157,    2.4000001
   2295,  0.820430756, -0.0619703084,    2.4000001
   2296, -0.847279072, 0.00760738086,    2.4000001
   2297, -0.839612186, 0.0457400791,    2.4000001
   2298, -0.784825802, -0.0766975358,    2.4000001
   2299,  0.829983056, 0.0493127294,    2.4000001
   2300,  0.665597022, 0.0122219762,    2.4000001
   2301, -0.824999988,  0.129903808,          2.5
   2302, -0.879903793,  0.075000003,          2.5
   2303, -0.899999976,           0.,          2.5
   2304, -0.879903793, -0.075000003,          2.5
   2305, -0.824999988, -0.129903808,          2.5
   2306,        -0.75,  0.150000006,          2.5
   2307,        -0.75, -0.150000006,          2.5
   2308,         0.75,  0.150000006,          2.5
   2309,  0.807402492,  0.138581932,          2.5
   2310,  0.888581932, 0.0574025139,          2.5
   2311,  0.899999976,           0.,          2.5
   2312,  0.888581932, -0.0574025139,          2.5
   2313,  0.807402492, -0.138581932,          2.5
   2314,         0.75, -0.150000006,          2.5
   2315, -0.649999976,  0.150000006,          2.5
   2316, -0.550000012,  0.150000006,          2.5
   2317, -0.449999988,  0.150000006,          2.5
   2318, -0.349999994,  0.150000006,          2.5
   2319,        -0.25,  0.150000006,          2.5
   2320, -0.150000006,  0.150000006,          2.5
   2321, -0.0500000007,  0.150000006,          2.5
   2322, 0.0500000007,  0.150000006,          2.5
   2323,  0.150000006,  0.150000006,          2.5
   2324,         0.25,  0.150000006,          2.5
   2325,  0.349999994,  0.150000006,          2.5
   2326,  0.449999988,  0.150000006,          2.5
   2327,  0.550000012,  0.150000006,          2.5
   2328,  0.649999976,  0.150000006,          2.5
   2329,  0.856065989,  0.106066018,          2.5
   2330,  0.856065989, -0.106066018,          2.5
   2331, -0.649999976, -0.150000006,          2.5
   2332, -0.550000012, -0.150000006,          2.5
   2333, -0.449999988, -0.150000006,          2.5
   2334, -0.349999994, -0.150000006,          2.5
   2335,        -0.25, -0.150000006,          2.5
   2336, -0.150000006, -0.150000006,          2.5
   2337, -0.0500000007, -0.150000006,          2.5
   2338, 0.0500000007, -0.150000006,          2.5
   2339,  0.150000006, -0.150000006,          2.5
   2340,         0.25, -0.150000006,          2.5
   2341,  0.349999994, -0.150000006,          2.5
   2342,  0.449999988, -0.150000006,          2.5
   2343,  0.550000012, -0.150000006,          2.5
   2344,  0.649999976, -0.150000006,          2.5
   2345,  0.832925498, -0.0149648422,          2.5
   2346,  0.784100533, 0.0628456771,          2.5
   2347,  0.729406416, 0.0743573606,          2.5
   2348, -0.725353241, -0.0839191377,          2.5
   2349, -0.802840471, -0.0231915358,          2.5
   2350, -0.793433845,  0.055117581,          2.5
   2351,  0.777760208, -0.00484846393,          2.5
   2352, -0.718149543, 0.0575515591,          2.5
   2353,  0.779690742, -0.0679016784,          2.5
   2354,  0.858609617, 0.0387705304,          2.5
   2355,  0.720747471, -0.0668375567,          2.5
   2356,  0.652115285, 0.0776163116,          2.5
   2357, -0.713731468, -0.0208027884,          2.5
   2358, -0.621186674, 0.0516216531,          2.5
   2359,  0.621709466, -0.0393298343,          2.5
   2360, -0.656531751, -0.0975037366,          2.5
   2361,  -0.51899457, 0.0494230501,          2.5
   2362, -0.417587906, 0.0494504161,          2.5
   2363, -0.316909552, 0.0495560504,          2.5
   2364, -0.216774106, 0.0496912152,          2.5
   2365, -0.116735026, 0.0497531854,          2.5
   2366, -0.016591765, 0.0497845225,          2.5
   2367, 0.0833239034, 0.0493216105,          2.5
   2368,  0.183342233, 0.0492441319,          2.5
   2369,  0.283334643,  0.049797222,          2.5
   2370, -0.384422302, -0.0491131209,          2.5
   2371, -0.283576399, -0.0490349717,          2.5
   2372, -0.183385685, -0.0489701368,          2.5
   2373, -0.0833504274, -0.0489429086,          2.5
   2374, 0.0166790728, -0.0493756421,          2.5
   2375,  0.116620295, -0.0496055074,          2.5
   2376,  0.216718107, -0.0496858284,          2.5
   2377,  0.316866845, -0.0490500629,          2.5
   2378, -0.602415204, -0.050688412,          2.5
   2379,  0.383211523, 0.0513742641,          2.5
   2380,  0.481736064, 0.0548581183,          2.5
   2381,  0.572274268, 0.0640596077,          2.5
   2382, -0.488438696, -0.0494441353,          2.5
   2383,  0.417243272, -0.0475444123,          2.5
   2384,  0.518074453, -0.0447730944,          2.5
   2385,  0.723617315, 0.00201012497,          2.5
   2386,  0.863923967, 0.00721039157,          2.5
   2387,  0.820430756, -0.0619703084,          2.5
   2388, -0.847279072, 0.00760738086,          2.5
   2389, -0.839612186, 0.0457400791,          2.5
   2390, -0.784825802, -0.0766975358,          2.5
   2391,  0.829983056, 0.0493127294,          2.5
   2392,  0.665597022, 0.0122219762,          2.5
   2393, -0.824999988,  0.129903808,    2.5999999
   2394, -0.879903793,  0.075000003,    2.5999999
   2395, -0.899999976,           0.,    2.5999999
   2396, -0.879903793, -0.075000003,    2.5999999
   2397, -0.824999988, -0.129903808,    2.5999999
   2398,        -0.75,  0.150000006,    2.5999999
   2399,        -0.75, -0.150000006,    2.5999999
   2400,         0.75,  0.150000006,    2.5999999
   2401,  0.807402492,  0.138581932,    2.5999999
   2402,  0.888581932, 0.0574025139,    2.5999999
   2403,  0.899999976,           0.,    2.5999999
   2404,  0.888581932, -0.0574025139,    2.5999999
   2405,  0.807402492, -0.138581932,    2.5999999
   2406,         0.75, -0.150000006,    2.5999999
   2407, -0.649999976,  0.150000006,    2.5999999
   2408, -0.550000012,  0.150000006,    2.5999999
   2409, -0.449999988,  0.150000006,    2.5999999
   2410, -0.349999994,  0.150000006,    2.5999999
   2411,        -0.25,  0.150000006,    2.5999999
   2412, -0.150000006,  0.150000006,    2.5999999
   2413, -0.0500000007,  0.150000006,    2.5999999
   2414, 0.0500000007,  0.150000006,    2.5999999
   2415,  0.150000006,  0.150000006,    2.5999999
   2416,         0.25,  0.150000006,    2.5999999
   2417,  0.349999994,  0.150000006,    2.5999999
   2418,  0.449999988,  0.150000006,    2.5999999
   2419,  0.550000012,  0.150000006,    2.5999999
   2420,  0.649999976,  0.150000006,    2.5999999
   2421,  0.856065989,  0.106066018,    2.5999999
   2422,  0.856065989, -0.106066018,    2.5999999
   2423, -0.649999976, -0.150000006,    2.5999999
   2424, -0.550000012, -0.150000006,    2.5999999
   2425, -0.449999988, -0.150000006,    2.5999999
   2426, -0.349999994, -0.150000006,    2.5999999
   2427,        -0.25, -0.150000006,    2.5999999
   2428, -0.150000006, -0.150000006,    2.5999999
   2429, -0.0500000007, -0.150000006,    2.5999999
   2430, 0.0500000007, -0.150000006,    2.5999999
   2431,  0.150000006, -0.150000006,    2.5999999
   2432,         0.25, -0.150000006,    2.5999999
   2433,  0.349999994, -0.150000006,    2.5999999
   2434,  0.449999988, -0.150000006,    2.5999999
   2435,  0.550000012, -0.150000006,    2.5999999
   2436,  0.649999976, -0.150000006,    2.5999999
   2437,  0.832925498, -0.0149648422,    2.5999999
   2438,  0.784100533, 0.0628456771,    2.5999999
   2439,  0.729406416, 0.0743573606,    2.5999999
   2440, -0.725353241, -0.0839191377,    2.5999999
   2441, -0.802840471, -0.0231915358,    2.5999999
   2442, -0.793433845,  0.055117581,    2.5999999
   2443,  0.777760208, -0.00484846393,    2.5999999
   2444, -0.718149543, 0.0575515591,    2.5999999
   2445,  0.779690742, -0.0679016784,    2.5999999
   2446,  0.858609617, 0.0387705304,    2.5999999
   2447,  0.720747471, -0.0668375567,    2.5999999
   2448,  0.652115285, 0.0776163116,    2.5999999
   2449, -0.713731468, -0.0208027884,    2.5999999
   2450, -0.621186674, 0.0516216531,    2.5999999
   2451,  0.621709466, -0.0393298343,    2.5999999
   2452, -0.656531751, -0.0975037366,    2.5999999
   2453,  -0.51899457, 0.0494230501,    2.5999999
   2454, -0.417587906, 0.0494504161,    2.5999999
   2455, -0.316909552, 0.0495560504,    2.5999999
   2456, -0.216774106, 0.0496912152,    2.5999999
   2457, -0.116735026, 0.0497531854,    2.5999999
   2458, -0.016591765, 0.0497845225,    2.5999999
   2459, 0.0833239034, 0.0493216105,    2.5999999
   2460,  0.183342233, 0.0492441319,    2.5999999
   2461,  0.283334643,  0.049797222,    2.5999999
   2462, -0.384422302, -0.0491131209,    2.5999999
   2463, -0.283576399, -0.0490349717,    2.5999999
   2464, -0.183385685, -0.0489701368,    2.5999999
   2465, -0.0833504274, -0.0489429086,    2.5999999
   2466, 0.0166790728, -0.0493756421,    2.5999999
   2467,  0.116620295, -0.0496055074,    2.5999999
   2468,  0.216718107, -0.0496858284,    2.5999999
   2469,  0.316866845, -0.0490500629,    2.5999999
   2470, -0.602415204, -0.050688412,    2.5999999
   2471,  0.383211523, 0.0513742641,    2.5999999
   2472,  0.481736064, 0.0548581183,    2.5999999
   2473,  0.572274268, 0.0640596077,    2.5999999
   2474, -0.488438696, -0.0494441353,    2.5999999
   2475,  0.417243272, -0.0475444123,    2.5999999
   2476,  0.518074453, -0.0447730944,    2.5999999
   2477,  0.723617315, 0.00201012497,    2.5999999
   2478,  0.863923967, 0.00721039157,    2.5999999
   2479,  0.820430756, -0.0619703084,    2.5999999
   2480, -0.847279072, 0.00760738086,    2.5999999
   2481, -0.839612186, 0.0457400791,    2.5999999
   2482, -0.784825802, -0.0766975358,    2.5999999
   2483,  0.829983056, 0.0493127294,    2.5999999
   2484,  0.665597022, 0.0122219762,    2.5999999
   2485, -0.824999988,  0.129903808,   2.70000005
   2486, -0.879903793,  0.075000003,   2.70000005
   2487, -0.899999976,           0.,   2.70000005
   2488, -0.879903793, -0.075000003,   2.70000005
   2489, -0.824999988, -0.129903808,   2.70000005
   2490,        -0.75,  0.150000006,   2.70000005
   2491,        -0.75, -0.150000006,   2.70000005
   2492,         0.75,  0.150000006,   2.70000005
   2493,  0.807402492,  0.138581932,   2.70000005
   2494,  0.888581932, 0.0574025139,   2.70000005
   2495,  0.899999976,           0.,   2.70000005
   2496,  0.888581932, -0.0574025139,   2.70000005
   2497,  0.807402492, -0.138581932,   2.70000005
   2498,         0.75, -0.150000006,   2.70000005
   2499, -0.649999976,  0.150000006,   2.70000005
   2500, -0.550000012,  0.150000006,   2.70000005
   2501, -0.449999988,  0.150000006,   2.70000005
   2502, -0.349999994,  0.150000006,   2.70000005
   2503,        -0.25,  0.150000006,   2.70000005
   2504, -0.150000006,  0.150000006,   2.70000005
   2505, -0.0500000007,  0.150000006,   2.70000005
   2506, 0.0500000007,  0.150000006,   2.70000005
   2507,  0.150000006,  0.150000006,   2.70000005
   2508,         0.25,  0.150000006,   2.70000005
   2509,  0.349999994,  0.150000006,   2.70000005
   2510,  0.449999988,  0.150000006,   2.70000005
   2511,  0.550000012,  0.150000006,   2.70000005
   2512,  0.649999976,  0.150000006,   2.70000005
   2513,  0.856065989,  0.106066018,   2.70000005
   2514,  0.856065989, -0.106066018,   2.70000005
   2515, -0.649999976, -0.150000006,   2.70000005
   2516, -0.550000012, -0.150000006,   2.70000005
   2517, -0.449999988, -0.150000006,   2.70000005
   2518, -0.349999994, -0.150000006,   2.70000005
   2519,        -0.25, -0.150000006,   2.70000005
   2520, -0.150000006, -0.150000006,   2.70000005
   2521, -0.0500000007, -0.150000006,   2.70000005
   2522, 0.0500000007, -0.150000006,   2.70000005
   2523,  0.150000006, -0.150000006,   2.70000005
   2524,         0.25, -0.150000006,   2.70000005
   2525,  0.349999994, -0.150000006,   2.70000005
   2526,  0.449999988, -0.150000006,   2.70000005
   2527,  0.550000012, -0.150000006,   2.70000005
   2528,  0.649999976, -0.150000006,   2.70000005
   2529,  0.832925498, -0.0149648422,   2.70000005
   2530,  0.784100533, 0.0628456771,   2.70000005
   2531,  0.729406416, 0.0743573606,   2.70000005
   2532, -0.725353241, -0.0839191377,   2.70000005
   2533, -0.802840471, -0.0231915358,   2.70000005
   2534, -0.793433845,  0.055117581,   2.70000005
   2535,  0.777760208, -0.00484846393,   2.70000005
   2536, -0.718149543, 0.0575515591,   2.70000005
   2537,  0.779690742, -0.0679016784,   2.70000005
   2538,  0.858609617, 0.0387705304,   2.70000005
   2539,  0.720747471, -0.0668375567,   2.70000005
   2540,  0.652115285, 0.0776163116,   2.70000005
   2541, -0.713731468, -0.0208027884,   2.70000005
   2542, -0.621186674, 0.0516216531,   2.70000005
   2543,  0.621709466, -0.0393298343,   2.70000005
   2544, -0.656531751, -0.0975037366,   2.70000005
   2545,  -0.51899457, 0.0494230501,   2.70000005
   2546, -0.417587906, 0.0494504161,   2.70000005
   2547, -0.316909552, 0.0495560504,   2.70000005
   2548, -0.216774106, 0.0496912152,   2.70000005
   2549, -0.116735026, 0.0497531854,   2.70000005
   2550, -0.016591765, 0.0497845225,   2.70000005
   2551, 0.0833239034, 0.0493216105,   2.70000005
   2552,  0.183342233, 0.0492441319,   2.70000005
   2553,  0.283334643,  0.049797222,   2.70000005
   2554, -0.384422302, -0.0491131209,   2.70000005
   2555, -0.283576399, -0.0490349717,   2.70000005
   2556, -0.183385685, -0.0489701368,   2.70000005
   2557, -0.0833504274, -0.0489429086,   2.70000005
   2558, 0.0166790728, -0.0493756421,   2.70000005
   2559,  0.116620295, -0.0496055074,   2.70000005
   2560,  0.216718107, -0.0496858284,   2.70000005
   2561,  0.316866845, -0.0490500629,   2.70000005
   2562, -0.602415204, -0.050688412,   2.70000005
   2563,  0.383211523, 0.0513742641,   2.70000005
   2564,  0.481736064, 0.0548581183,   2.70000005
   2565,  0.572274268, 0.0640596077,   2.70000005
   2566, -0.488438696, -0.0494441353,   2.70000005
   2567,  0.417243272, -0.0475444123,   2.70000005
   2568,  0.518074453, -0.0447730944,   2.70000005
   2569,  0.723617315, 0.00201012497,   2.70000005
   2570,  0.863923967, 0.00721039157,   2.70000005
   2571,  0.820430756, -0.0619703084,   2.70000005
   2572, -0.847279072, 0.00760738086,   2.70000005
   2573, -0.839612186, 0.0457400791,   2.70000005
   2574, -0.784825802, -0.0766975358,   2.70000005
   2575,  0.829983056, 0.0493127294,   2.70000005
   2576,  0.665597022, 0.0122219762,   2.70000005
   2577, -0.824999988,  0.129903808,   2.79999995
   2578, -0.879903793,  0.075000003,   2.79999995
   2579, -0.899999976,           0.,   2.79999995
   2580, -0.879903793, -0.075000003,   2.79999995
   2581, -0.824999988, -0.129903808,   2.79999995
   2582,        -0.75,  0.150000006,   2.79999995
   2583,        -0.75, -0.150000006,   2.79999995
   2584,         0.75,  0.150000006,   2.79999995
   2585,  0.807402492,  0.138581932,   2.79999995
   2586,  0.888581932, 0.0574025139,   2.79999995
   2587,  0.899999976,           0.,   2.79999995
   2588,  0.888581932, -0.0574025139,   2.79999995
   2589,  0.807402492, -0.138581932,   2.79999995
   2590,         0.75, -0.150000006,   2.79999995
   2591, -0.649999976,  0.150000006,   2.79999995
   2592, -0.550000012,  0.150000006,   2.79999995
   2593, -0.449999988,  0.150000006,   2.79999995
   2594, -0.349999994,  0.150000006,   2.79999995
   2595,        -0.25,  0.150000006,   2.79999995
   2596, -0.150000006,  0.150000006,   2.79999995
   2597, -0.0500000007,  0.150000006,   2.79999995
   2598, 0.0500000007,  0.150000006,   2.79999995
   2599,  0.150000006,  0.150000006,   2.79999995
   2600,         0.25,  0.150000006,   2.79999995
   2601,  0.349999994,  0.150000006,   2.79999995
   2602,  0.449999988,  0.150000006,   2.79999995
   2603,  0.550000012,  0.150000006,   2.79999995
   2604,  0.649999976,  0.150000006,   2.79999995
   2605,  0.856065989,  0.106066018,   2.79999995
   2606,  0.856065989, -0.106066018,   2.79999995
   2607, -0.649999976, -0.150000006,   2.79999995
   2608, -0.550000012, -0.150000006,   2.79999995
   2609, -0.449999988, -0.150000006,   2.79999995
   2610, -0.349999994, -0.150000006,   2.79999995
   2611,        -0.25, -0.150000006,   2.79999995
   2612, -0.150000006, -0.150000006,   2.79999995
   2613, -0.0500000007, -0.150000006,   2.79999995
   2614, 0.0500000007, -0.150000006,   2.79999995
   2615,  0.150000006, -0.150000006,   2.79999995
   2616,         0.25, -0.150000006,   2.79999995
   2617,  0.349999994, -0.150000006,   2.79999995
   2618,  0.449999988, -0.150000006,   2.79999995
   2619,  0.550000012, -0.150000006,   2.79999995
   2620,  0.649999976, -0.150000006,   2.79999995
   2621,  0.832925498, -0.0149648422,   2.79999995
   2622,  0.784100533, 0.0628456771,   2.79999995
   2623,  0.729406416, 0.0743573606,   2.79999995
   2624, -0.725353241, -0.0839191377,   2.79999995
   2625, -0.802840471, -0.0231915358,   2.79999995
   2626, -0.793433845,  0.055117581,   2.79999995
   2627,  0.777760208, -0.00484846393,   2.79999995
   2628, -0.718149543, 0.0575515591,   2.79999995
   2629,  0.779690742, -0.0679016784,   2.79999995
   2630,  0.858609617, 0.0387705304,   2.79999995
   2631,  0.720747471, -0.0668375567,   2.79999995
   2632,  0.652115285, 0.0776163116,   2.79999995
   2633, -0.713731468, -0.0208027884,   2.79999995
   2634, -0.621186674, 0.0516216531,   2.79999995
   2635,  0.621709466, -0.0393298343,   2.79999995
   2636, -0.656531751, -0.0975037366,   2.79999995
   2637,  -0.51899457, 0.0494230501,   2.79999995
   2638, -0.417587906, 0.0494504161,   2.79999995
   2639, -0.316909552, 0.0495560504,   2.79999995
   2640, -0.216774106, 0.0496912152,   2.79999995
   2641, -0.116735026, 0.0497531854,   2.79999995
   2642, -0.016591765, 0.0497845225,   2.79999995
   2643, 0.0833239034, 0.0493216105,   2.79999995
   2644,  0.183342233, 0.0492441319,   2.79999995
   2645,  0.283334643,  0.049797222,   2.79999995
   2646, -0.384422302, -0.0491131209,   2.79999995
   2647, -0.283576399, -0.0490349717,   2.79999995
   2648, -0.183385685, -0.0489701368,   2.79999995
   2649, -0.0833504274, -0.0489429086,   2.79999995
   2650, 0.0166790728, -0.0493756421,   2.79999995
   2651,  0.116620295, -0.0496055074,   2.79999995
   2652,  0.216718107, -0.0496858284,   2.79999995
   2653,  0.316866845, -0.0490500629,   2.79999995
   2654, -0.602415204, -0.050688412,   2.79999995
   2655,  0.383211523, 0.0513742641,   2.79999995
   2656,  0.481736064, 0.0548581183,   2.79999995
   2657,  0.572274268, 0.0640596077,   2.79999995
   2658, -0.488438696, -0.0494441353,   2.79999995
   2659,  0.417243272, -0.0475444123,   2.79999995
   2660,  0.518074453, -0.0447730944,   2.79999995
   2661,  0.723617315, 0.00201012497,   2.79999995
   2662,  0.863923967, 0.00721039157,   2.79999995
   2663,  0.820430756, -0.0619703084,   2.79999995
   2664, -0.847279072, 0.00760738086,   2.79999995
   2665, -0.839612186, 0.0457400791,   2.79999995
   2666, -0.784825802, -0.0766975358,   2.79999995
   2667,  0.829983056, 0.0493127294,   2.79999995
   2668,  0.665597022, 0.0122219762,   2.79999995
   2669, -0.824999988,  0.129903808,    2.9000001
   2670, -0.879903793,  0.075000003,    2.9000001
   2671, -0.899999976,           0.,    2.9000001
   2672, -0.879903793, -0.075000003,    2.9000001
   2673, -0.824999988, -0.129903808,    2.9000001
   2674,        -0.75,  0.150000006,    2.9000001
   2675,        -0.75, -0.150000006,    2.9000001
   2676,         0.75,  0.150000006,    2.9000001
   2677,  0.807402492,  0.138581932,    2.9000001
   2678,  0.888581932, 0.0574025139,    2.9000001
   2679,  0.899999976,           0.,    2.9000001
   2680,  0.888581932, -0.0574025139,    2.9000001
   2681,  0.807402492, -0.138581932,    2.9000001
   2682,         0.75, -0.150000006,    2.9000001
   2683, -0.649999976,  0.150000006,    2.9000001
   2684, -0.550000012,  0.150000006,    2.9000001
   2685, -0.449999988,  0.150000006,    2.9000001
   2686, -0.349999994,  0.150000006,    2.9000001
   2687,        -0.25,  0.150000006,    2.9000001
   2688, -0.150000006,  0.150000006,    2.9000001
   2689, -0.0500000007,  0.150000006,    2.9000001
   2690, 0.0500000007,  0.150000006,    2.9000001
   2691,  0.150000006,  0.150000006,    2.9000001
   2692,         0.25,  0.150000006,    2.9000001
   2693,  0.349999994,  0.150000006,    2.9000001
   2694,  0.449999988,  0.150000006,    2.9000001
   2695,  0.550000012,  0.150000006,    2.9000001
   2696,  0.649999976,  0.150000006,    2.9000001
   2697,  0.856065989,  0.106066018,    2.9000001
   2698,  0.856065989, -0.106066018,    2.9000001
   2699, -0.649999976, -0.150000006,    2.9000001
   2700, -0.550000012, -0.150000006,    2.9000001
   2701, -0.449999988, -0.150000006,    2.9000001
   2702, -0.349999994, -0.150000006,    2.9000001
   2703,        -0.25, -0.150000006,    2.9000001
   2704, -0.150000006, -0.150000006,    2.9000001
   2705, -0.0500000007, -0.150000006,    2.9000001
   2706, 0.0500000007, -0.150000006,    2.9000001
   2707,  0.150000006, -0.150000006,    2.9000001
   2708,         0.25, -0.150000006,    2.9000001
   2709,  0.349999994, -0.150000006,    2.9000001
   2710,  0.449999988, -0.150000006,    2.9000001
   2711,  0.550000012, -0.150000006,    2.9000001
   2712,  0.649999976, -0.150000006,    2.9000001
   2713,  0.832925498, -0.0149648422,    2.9000001
   2714,  0.784100533, 0.0628456771,    2.9000001
   2715,  0.729406416, 0.0743573606,    2.9000001
   2716, -0.725353241, -0.0839191377,    2.9000001
   2717, -0.802840471, -0.0231915358,    2.9000001
   2718, -0.793433845,  0.055117581,    2.9000001
   2719,  0.777760208, -0.00484846393,    2.9000001
   2720, -0.718149543, 0.0575515591,    2.9000001
   2721,  0.779690742, -0.0679016784,    2.9000001
   2722,  0.858609617, 0.0387705304,    2.9000001
   2723,  0.720747471, -0.0668375567,    2.9000001
   2724,  0.652115285, 0.0776163116,    2.9000001
   2725, -0.713731468, -0.0208027884,    2.9000001
   2726, -0.621186674, 0.0516216531,    2.9000001
   2727,  0.621709466, -0.0393298343,    2.9000001
   2728, -0.656531751, -0.0975037366,    2.9000001
   2729,  -0.51899457, 0.0494230501,    2.9000001
   2730, -0.417587906, 0.0494504161,    2.9000001
   2731, -0.316909552, 0.0495560504,    2.9000001
   2732, -0.216774106, 0.0496912152,    2.9000001
   2733, -0.116735026, 0.0497531854,    2.9000001
   2734, -0.016591765, 0.0497845225,    2.9000001
   2735, 0.0833239034, 0.0493216105,    2.9000001
   2736,  0.183342233, 0.0492441319,    2.9000001
   2737,  0.283334643,  0.049797222,    2.9000001
   2738, -0.384422302, -0.0491131209,    2.9000001
   2739, -0.283576399, -0.0490349717,    2.9000001
   2740, -0.183385685, -0.0489701368,    2.9000001
   2741, -0.0833504274, -0.0489429086,    2.9000001
   2742, 0.0166790728, -0.0493756421,    2.9000001
   2743,  0.116620295, -0.0496055074,    2.9000001
   2744,  0.216718107, -0.0496858284,    2.9000001
   2745,  0.316866845, -0.0490500629,    2.9000001
   2746, -0.602415204, -0.050688412,    2.9000001
   2747,  0.383211523, 0.0513742641,    2.9000001
   2748,  0.481736064, 0.0548581183,    2.9000001
   2749,  0.572274268, 0.0640596077,    2.9000001
   2750, -0.488438696, -0.0494441353,    2.9000001
   2751,  0.417243272, -0.0475444123,    2.9000001
   2752,  0.518074453, -0.0447730944,    2.9000001
   2753,  0.723617315, 0.00201012497,    2.9000001
   2754,  0.863923967, 0.00721039157,    2.9000001
   2755,  0.820430756, -0.0619703084,    2.9000001
   2756, -0.847279072, 0.00760738086,    2.9000001
   2757, -0.839612186, 0.0457400791,    2.9000001
   2758, -0.784825802, -0.0766975358,    2.9000001
   2759,  0.829983056, 0.0493127294,    2.9000001
   2760,  0.665597022, 0.0122219762,    2.9000001
   2761, -0.824999988,  0.129903808,           3.
   2762, -0.879903793,  0.075000003,           3.
   2763, -0.899999976,           0.,           3.
   2764, -0.879903793, -0.075000003,           3.
   2765, -0.824999988, -0.129903808,           3.
   2766,        -0.75,  0.150000006,           3.
   2767,        -0.75, -0.150000006,           3.
   2768,         0.75,  0.150000006,           3.
   2769,  0.807402492,  0.138581932,           3.
   2770,  0.888581932, 0.0574025139,           3.
   2771,  0.899999976,           0.,           3.
   2772,  0.888581932, -0.0574025139,           3.
   2773,  0.807402492, -0.138581932,           3.
   2774,         0.75, -0.150000006,           3.
   2775, -0.649999976,  0.150000006,           3.
   2776, -0.550000012,  0.150000006,           3.
   2777, -0.449999988,  0.150000006,           3.
   2778, -0.349999994,  0.150000006,           3.
   2779,        -0.25,  0.150000006,           3.
   2780, -0.150000006,  0.150000006,           3.
   2781, -0.0500000007,  0.150000006,           3.
   2782, 0.0500000007,  0.150000006,           3.
   2783,  0.150000006,  0.150000006,           3.
   2784,         0.25,  0.150000006,           3.
   2785,  0.349999994,  0.150000006,           3.
   2786,  0.449999988,  0.150000006,           3.
   2787,  0.550000012,  0.150000006,           3.
   2788,  0.649999976,  0.150000006,           3.
   2789,  0.856065989,  0.106066018,           3.
   2790,  0.856065989, -0.106066018,           3.
   2791, -0.649999976, -0.150000006,           3.
   2792, -0.550000012, -0.150000006,           3.
   2793, -0.449999988, -0.150000006,           3.
   2794, -0.349999994, -0.150000006,           3.
   2795,        -0.25, -0.150000006,           3.
   2796, -0.150000006, -0.150000006,           3.
   2797, -0.0500000007, -0.150000006,           3.
   2798, 0.0500000007, -0.150000006,           3.
   2799,  0.150000006, -0.150000006,           3.
   2800,         0.25, -0.150000006,           3.
   2801,  0.349999994, -0.150000006,           3.
   2802,  0.449999988, -0.150000006,           3.
   2803,  0.550000012, -0.150000006,           3.
   2804,  0.649999976, -0.150000006,           3.
   2805,  0.832925498, -0.0149648422,           3.
   2806,  0.784100533, 0.0628456771,           3.
   2807,  0.729406416, 0.0743573606,           3.
   2808, -0.725353241, -0.0839191377,           3.
   2809, -0.802840471, -0.0231915358,           3.
   2810, -0.793433845,  0.055117581,           3.
   2811,  0.777760208, -0.00484846393,           3.
   2812, -0.718149543, 0.0575515591,           3.
   2813,  0.779690742, -0.0679016784,           3.
   2814,  0.858609617, 0.0387705304,           3.
   2815,  0.720747471, -0.0668375567,           3.
   2816,  0.652115285, 0.0776163116,           3.
   2817, -0.713731468, -0.0208027884,           3.
   2818, -0.621186674, 0.0516216531,           3.
   2819,  0.621709466, -0.0393298343,           3.
   2820, -0.656531751, -0.0975037366,           3.
   2821,  -0.51899457, 0.0494230501,           3.
   2822, -0.417587906, 0.0494504161,           3.
   2823, -0.316909552, 0.0495560504,           3.
   2824, -0.216774106, 0.0496912152,           3.
   2825, -0.116735026, 0.0497531854,           3.
   2826, -0.016591765, 0.0497845225,           3.
   2827, 0.0833239034, 0.0493216105,           3.
   2828,  0.183342233, 0.0492441319,           3.
   2829,  0.283334643,  0.049797222,           3.
   2830, -0.384422302, -0.0491131209,           3.
   2831, -0.283576399, -0.0490349717,           3.
   2832, -0.183385685, -0.0489701368,           3.
   2833, -0.0833504274, -0.0489429086,           3.
   2834, 0.0166790728, -0.0493756421,           3.
   2835,  0.116620295, -0.0496055074,           3.
   2836,  0.216718107, -0.0496858284,           3.
   2837,  0.316866845, -0.0490500629,           3.
   2838, -0.602415204, -0.050688412,           3.
   2839,  0.383211523, 0.0513742641,           3.
   2840,  0.481736064, 0.0548581183,           3.
   2841,  0.572274268, 0.0640596077,           3.
   2842, -0.488438696, -0.0494441353,           3.
   2843,  0.417243272, -0.0475444123,           3.
   2844,  0.518074453, -0.0447730944,           3.
   2845,  0.723617315, 0.00201012497,           3.
   2846,  0.863923967, 0.00721039157,           3.
   2847,  0.820430756, -0.0619703084,           3.
   2848, -0.847279072, 0.00760738086,           3.
   2849, -0.839612186, 0.0457400791,           3.
   2850, -0.784825802, -0.0766975358,           3.
   2851,  0.829983056, 0.0493127294,           3.
   2852,  0.665597022, 0.0122219762,           3.
   2853, -0.824999988,  0.129903808,    3.0999999
   2854, -0.879903793,  0.075000003,    3.0999999
   2855, -0.899999976,           0.,    3.0999999
   2856, -0.879903793, -0.075000003,    3.0999999
   2857, -0.824999988, -0.129903808,    3.0999999
   2858,        -0.75,  0.150000006,    3.0999999
   2859,        -0.75, -0.150000006,    3.0999999
   2860,         0.75,  0.150000006,    3.0999999
   2861,  0.807402492,  0.138581932,    3.0999999
   2862,  0.888581932, 0.0574025139,    3.0999999
   2863,  0.899999976,           0.,    3.0999999
   2864,  0.888581932, -0.0574025139,    3.0999999
   2865,  0.807402492, -0.138581932,    3.0999999
   2866,         0.75, -0.150000006,    3.0999999
   2867, -0.649999976,  0.150000006,    3.0999999
   2868, -0.550000012,  0.150000006,    3.0999999
   2869, -0.449999988,  0.150000006,    3.0999999
   2870, -0.349999994,  0.150000006,    3.0999999
   2871,        -0.25,  0.150000006,    3.0999999
   2872, -0.150000006,  0.150000006,    3.0999999
   2873, -0.0500000007,  0.150000006,    3.0999999
   2874, 0.0500000007,  0.150000006,    3.0999999
   2875,  0.150000006,  0.150000006,    3.0999999
   2876,         0.25,  0.150000006,    3.0999999
   2877,  0.349999994,  0.150000006,    3.0999999
   2878,  0.449999988,  0.150000006,    3.0999999
   2879,  0.550000012,  0.150000006,    3.0999999
   2880,  0.649999976,  0.150000006,    3.0999999
   2881,  0.856065989,  0.106066018,    3.0999999
   2882,  0.856065989, -0.106066018,    3.0999999
   2883, -0.649999976, -0.150000006,    3.0999999
   2884, -0.550000012, -0.150000006,    3.0999999
   2885, -0.449999988, -0.150000006,    3.0999999
   2886, -0.349999994, -0.150000006,    3.0999999
   2887,        -0.25, -0.150000006,    3.0999999
   2888, -0.150000006, -0.150000006,    3.0999999
   2889, -0.0500000007, -0.150000006,    3.0999999
   2890, 0.0500000007, -0.150000006,    3.0999999
   2891,  0.150000006, -0.150000006,    3.0999999
   2892,         0.25, -0.150000006,    3.0999999
   2893,  0.349999994, -0.150000006,    3.0999999
   2894,  0.449999988, -0.150000006,    3.0999999
   2895,  0.550000012, -0.150000006,    3.0999999
   2896,  0.649999976, -0.150000006,    3.0999999
   2897,  0.832925498, -0.0149648422,    3.0999999
   2898,  0.784100533, 0.0628456771,    3.0999999
   2899,  0.729406416, 0.0743573606,    3.0999999
   2900, -0.725353241, -0.0839191377,    3.0999999
   2901, -0.802840471, -0.0231915358,    3.0999999
   2902, -0.793433845,  0.055117581,    3.0999999
   2903,  0.777760208, -0.00484846393,    3.0999999
   2904, -0.718149543, 0.0575515591,    3.0999999
   2905,  0.779690742, -0.0679016784,    3.0999999
   2906,  0.858609617, 0.0387705304,    3.0999999
   2907,  0.720747471, -0.0668375567,    3.0999999
   2908,  0.652115285, 0.0776163116,    3.0999999
   2909, -0.713731468, -0.0208027884,    3.0999999
   2910, -0.621186674, 0.0516216531,    3.0999999
   2911,  0.621709466, -0.0393298343,    3.0999999
   2912, -0.656531751, -0.0975037366,    3.0999999
   2913,  -0.51899457, 0.0494230501,    3.0999999
   2914, -0.417587906, 0.0494504161,    3.0999999
   2915, -0.316909552, 0.0495560504,    3.0999999
   2916, -0.216774106, 0.0496912152,    3.0999999
   2917, -0.116735026, 0.0497531854,    3.0999999
   2918, -0.016591765, 0.0497845225,    3.0999999
   2919, 0.0833239034, 0.0493216105,    3.0999999
   2920,  0.183342233, 0.0492441319,    3.0999999
   2921,  0.283334643,  0.049797222,    3.0999999
   2922, -0.384422302, -0.0491131209,    3.0999999
   2923, -0.283576399, -0.0490349717,    3.0999999
   2924, -0.183385685, -0.0489701368,    3.0999999
   2925, -0.0833504274, -0.0489429086,    3.0999999
   2926, 0.0166790728, -0.0493756421,    3.0999999
   2927,  0.116620295, -0.0496055074,    3.0999999
   2928,  0.216718107, -0.0496858284,    3.0999999
   2929,  0.316866845, -0.0490500629,    3.0999999
   2930, -0.602415204, -0.050688412,    3.0999999
   2931,  0.383211523, 0.0513742641,    3.0999999
   2932,  0.481736064, 0.0548581183,    3.0999999
   2933,  0.572274268, 0.0640596077,    3.0999999
   2934, -0.488438696, -0.0494441353,    3.0999999
   2935,  0.417243272, -0.0475444123,    3.0999999
   2936,  0.518074453, -0.0447730944,    3.0999999
   2937,  0.723617315, 0.00201012497,    3.0999999
   2938,  0.863923967, 0.00721039157,    3.0999999
   2939,  0.820430756, -0.0619703084,    3.0999999
   2940, -0.847279072, 0.00760738086,    3.0999999
   2941, -0.839612186, 0.0457400791,    3.0999999
   2942, -0.784825802, -0.0766975358,    3.0999999
   2943,  0.829983056, 0.0493127294,    3.0999999
   2944,  0.665597022, 0.0122219762,    3.0999999
   2945, -0.824999988,  0.129903808,   3.20000005
   2946, -0.879903793,  0.075000003,   3.20000005
   2947, -0.899999976,           0.,   3.20000005
   2948, -0.879903793, -0.075000003,   3.20000005
   2949, -0.824999988, -0.129903808,   3.20000005
   2950,        -0.75,  0.150000006,   3.20000005
   2951,        -0.75, -0.150000006,   3.20000005
   2952,         0.75,  0.150000006,   3.20000005
   2953,  0.807402492,  0.138581932,   3.20000005
   2954,  0.888581932, 0.0574025139,   3.20000005
   2955,  0.899999976,           0.,   3.20000005
   2956,  0.888581932, -0.0574025139,   3.20000005
   2957,  0.807402492, -0.138581932,   3.20000005
   2958,         0.75, -0.150000006,   3.20000005
   2959, -0.649999976,  0.150000006,   3.20000005
   2960, -0.550000012,  0.150000006,   3.20000005
   2961, -0.449999988,  0.150000006,   3.20000005
   2962, -0.349999994,  0.150000006,   3.20000005
   2963,        -0.25,  0.150000006,   3.20000005
   2964, -0.150000006,  0.150000006,   3.20000005
   2965, -0.0500000007,  0.150000006,   3.20000005
   2966, 0.0500000007,  0.150000006,   3.20000005
   2967,  0.150000006,  0.150000006,   3.20000005
   2968,         0.25,  0.150000006,   3.20000005
   2969,  0.349999994,  0.150000006,   3.20000005
   2970,  0.449999988,  0.150000006,   3.20000005
   2971,  0.550000012,  0.150000006,   3.20000005
   2972,  0.649999976,  0.150000006,   3.20000005
   2973,  0.856065989,  0.106066018,   3.20000005
   2974,  0.856065989, -0.106066018,   3.20000005
   2975, -0.649999976, -0.150000006,   3.20000005
   2976, -0.550000012, -0.150000006,   3.20000005
   2977, -0.449999988, -0.150000006,   3.20000005
   2978, -0.349999994, -0.150000006,   3.20000005
   2979,        -0.25, -0.150000006,   3.20000005
   2980, -0.150000006, -0.150000006,   3.20000005
   2981, -0.0500000007, -0.150000006,   3.20000005
   2982, 0.0500000007, -0.150000006,   3.20000005
   2983,  0.150000006, -0.150000006,   3.20000005
   2984,         0.25, -0.150000006,   3.20000005
   2985,  0.349999994, -0.150000006,   3.20000005
   2986,  0.449999988, -0.150000006,   3.20000005
   2987,  0.550000012, -0.150000006,   3.20000005
   2988,  0.649999976, -0.150000006,   3.20000005
   2989,  0.832925498, -0.0149648422,   3.20000005
   2990,  0.784100533, 0.0628456771,   3.20000005
   2991,  0.729406416, 0.0743573606,   3.20000005
   2992, -0.725353241, -0.0839191377,   3.20000005
   2993, -0.802840471, -0.0231915358,   3.20000005
   2994, -0.793433845,  0.055117581,   3.20000005
   2995,  0.777760208, -0.00484846393,   3.20000005
   2996, -0.718149543, 0.0575515591,   3.20000005
   2997,  0.779690742, -0.0679016784,   3.20000005
   2998,  0.858609617, 0.0387705304,   3.20000005
   2999,  0.720747471, -0.0668375567,   3.20000005
   3000,  0.652115285, 0.0776163116,   3.20000005
   3001, -0.713731468, -0.0208027884,   3.20000005
   3002, -0.621186674, 0.0516216531,   3.20000005
   3003,  0.621709466, -0.0393298343,   3.20000005
   3004, -0.656531751, -0.0975037366,   3.20000005
   3005,  -0.51899457, 0.0494230501,   3.20000005
   3006, -0.417587906, 0.0494504161,   3.20000005
   3007, -0.316909552, 0.0495560504,   3.20000005
   3008, -0.216774106, 0.0496912152,   3.20000005
   3009, -0.116735026, 0.0497531854,   3.20000005
   3010, -0.016591765, 0.0497845225,   3.20000005
   3011, 0.0833239034, 0.0493216105,   3.20000005
   3012,  0.183342233, 0.0492441319,   3.20000005
   3013,  0.283334643,  0.049797222,   3.20000005
   3014, -0.384422302, -0.0491131209,   3.20000005
   3015, -0.283576399, -0.0490349717,   3.20000005
   3016, -0.183385685, -0.0489701368,   3.20000005
   3017, -0.0833504274, -0.0489429086,   3.20000005
   3018, 0.0166790728, -0.0493756421,   3.20000005
   3019,  0.116620295, -0.0496055074,   3.20000005
   3020,  0.216718107, -0.0496858284,   3.20000005
   3021,  0.316866845, -0.0490500629,   3.20000005
   3022, -0.602415204, -0.050688412,   3.20000005
   3023,  0.383211523, 0.0513742641,   3.20000005
   3024,  0.481736064, 0.0548581183,   3.20000005
   3025,  0.572274268, 0.0640596077,   3.20000005
   3026, -0.488438696, -0.0494441353,   3.20000005
   3027,  0.417243272, -0.0475444123,   3.20000005
   3028,  0.518074453, -0.0447730944,   3.20000005
   3029,  0.723617315, 0.00201012497,   3.20000005
   3030,  0.863923967, 0.00721039157,   3.20000005
   3031,  0.820430756, -0.0619703084,   3.20000005
   3032, -0.847279072, 0.00760738086,   3.20000005
   3033, -0.839612186, 0.0457400791,   3.20000005
   3034, -0.784825802, -0.0766975358,   3.20000005
   3035,  0.829983056, 0.0493127294,   3.20000005
   3036,  0.665597022, 0.0122219762,   3.20000005
   3037, -0.824999988,  0.129903808,   3.29999995
   3038, -0.879903793,  0.075000003,   3.29999995
   3039, -0.899999976,           0.,   3.29999995
   3040, -0.879903793, -0.075000003,   3.29999995
   3041, -0.824999988, -0.129903808,   3.29999995
   3042,        -0.75,  0.150000006,   3.29999995
   3043,        -0.75, -0.150000006,   3.29999995
   3044,         0.75,  0.150000006,   3.29999995
   3045,  0.807402492,  0.138581932,   3.29999995
   3046,  0.888581932, 0.0574025139,   3.29999995
   3047,  0.899999976,           0.,   3.29999995
   3048,  0.888581932, -0.0574025139,   3.29999995
   3049,  0.807402492, -0.138581932,   3.29999995
   3050,         0.75, -0.150000006,   3.29999995
   3051, -0.649999976,  0.150000006,   3.29999995
   3052, -0.550000012,  0.150000006,   3.29999995
   3053, -0.449999988,  0.150000006,   3.29999995
   3054, -0.349999994,  0.150000006,   3.29999995
   3055,        -0.25,  0.150000006,   3.29999995
   3056, -0.150000006,  0.150000006,   3.29999995
   3057, -0.0500000007,  0.150000006,   3.29999995
   3058, 0.0500000007,  0.150000006,   3.29999995
   3059,  0.150000006,  0.150000006,   3.29999995
   3060,         0.25,  0.150000006,   3.29999995
   3061,  0.349999994,  0.150000006,   3.29999995
   3062,  0.449999988,  0.150000006,   3.29999995
   3063,  0.550000012,  0.150000006,   3.29999995
   3064,  0.649999976,  0.150000006,   3.29999995
   3065,  0.856065989,  0.106066018,   3.29999995
   3066,  0.856065989, -0.106066018,   3.29999995
   3067, -0.649999976, -0.150000006,   3.29999995
   3068, -0.550000012, -0.150000006,   3.29999995
   3069, -0.449999988, -0.150000006,   3.29999995
   3070, -0.349999994, -0.150000006,   3.29999995
   3071,        -0.25, -0.150000006,   3.29999995
   3072, -0.150000006, -0.150000006,   3.29999995
   3073, -0.0500000007, -0.150000006,   3.29999995
   3074, 0.0500000007, -0.150000006,   3.29999995
   3075,  0.150000006, -0.150000006,   3.29999995
   3076,         0.25, -0.150000006,   3.29999995
   3077,  0.349999994, -0.150000006,   3.29999995
   3078,  0.449999988, -0.150000006,   3.29999995
   3079,  0.550000012, -0.150000006,   3.29999995
   3080,  0.649999976, -0.150000006,   3.29999995
   3081,  0.832925498, -0.0149648422,   3.29999995
   3082,  0.784100533, 0.0628456771,   3.29999995
   3083,  0.729406416, 0.0743573606,   3.29999995
   3084, -0.725353241, -0.0839191377,   3.29999995
   3085, -0.802840471, -0.0231915358,   3.29999995
   3086, -0.793433845,  0.055117581,   3.29999995
   3087,  0.777760208, -0.00484846393,   3.29999995
   3088, -0.718149543, 0.0575515591,   3.29999995
   3089,  0.779690742, -0.0679016784,   3.29999995
   3090,  0.858609617, 0.0387705304,   3.29999995
   3091,  0.720747471, -0.0668375567,   3.29999995
   3092,  0.652115285, 0.0776163116,   3.29999995
   3093, -0.713731468, -0.0208027884,   3.29999995
   3094, -0.621186674, 0.0516216531,   3.29999995
   3095,  0.621709466, -0.0393298343,   3.29999995
   3096, -0.656531751, -0.0975037366,   3.29999995
   3097,  -0.51899457, 0.0494230501,   3.29999995
   3098, -0.417587906, 0.0494504161,   3.29999995
   3099, -0.316909552, 0.0495560504,   3.29999995
   3100, -0.216774106, 0.0496912152,   3.29999995
   3101, -0.116735026, 0.0497531854,   3.29999995
   3102, -0.016591765, 0.0497845225,   3.29999995
   3103, 0.0833239034, 0.0493216105,   3.29999995
   3104,  0.183342233, 0.0492441319,   3.29999995
   3105,  0.283334643,  0.049797222,   3.29999995
   3106, -0.384422302, -0.0491131209,   3.29999995
   3107, -0.283576399, -0.0490349717,   3.29999995
   3108, -0.183385685, -0.0489701368,   3.29999995
   3109, -0.0833504274, -0.0489429086,   3.29999995
   3110, 0.0166790728, -0.0493756421,   3.29999995
   3111,  0.116620295, -0.0496055074,   3.29999995
   3112,  0.216718107, -0.0496858284,   3.29999995
   3113,  0.316866845, -0.0490500629,   3.29999995
   3114, -0.602415204, -0.050688412,   3.29999995
   3115,  0.383211523, 0.0513742641,   3.29999995
   3116,  0.481736064, 0.0548581183,   3.29999995
   3117,  0.572274268, 0.0640596077,   3.29999995
   3118, -0.488438696, -0.0494441353,   3.29999995
   3119,  0.417243272, -0.0475444123,   3.29999995
   3120,  0.518074453, -0.0447730944,   3.29999995
   3121,  0.723617315, 0.00201012497,   3.29999995
   3122,  0.863923967, 0.00721039157,   3.29999995
   3123,  0.820430756, -0.0619703084,   3.29999995
   3124, -0.847279072, 0.00760738086,   3.29999995
   3125, -0.839612186, 0.0457400791,   3.29999995
   3126, -0.784825802, -0.0766975358,   3.29999995
   3127,  0.829983056, 0.0493127294,   3.29999995
   3128,  0.665597022, 0.0122219762,   3.29999995
   3129, -0.824999988,  0.129903808,    3.4000001
   3130, -0.879903793,  0.075000003,    3.4000001
   3131, -0.899999976,           0.,    3.4000001
   3132, -0.879903793, -0.075000003,    3.4000001
   3133, -0.824999988, -0.129903808,    3.4000001
   3134,        -0.75,  0.150000006,    3.4000001
   3135,        -0.75, -0.150000006,    3.4000001
   3136,         0.75,  0.150000006,    3.4000001
   3137,  0.807402492,  0.138581932,    3.4000001
   3138,  0.888581932, 0.0574025139,    3.4000001
   3139,  0.899999976,           0.,    3.4000001
   3140,  0.888581932, -0.0574025139,    3.4000001
   3141,  0.807402492, -0.138581932,    3.4000001
   3142,         0.75, -0.150000006,    3.4000001
   3143, -0.649999976,  0.150000006,    3.4000001
   3144, -0.550000012,  0.150000006,    3.4000001
   3145, -0.449999988,  0.150000006,    3.4000001
   3146, -0.349999994,  0.150000006,    3.4000001
   3147,        -0.25,  0.150000006,    3.4000001
   3148, -0.150000006,  0.150000006,    3.4000001
   3149, -0.0500000007,  0.150000006,    3.4000001
   3150, 0.0500000007,  0.150000006,    3.4000001
   3151,  0.150000006,  0.150000006,    3.4000001
   3152,         0.25,  0.150000006,    3.4000001
   3153,  0.349999994,  0.150000006,    3.4000001
   3154,  0.449999988,  0.150000006,    3.4000001
   3155,  0.550000012,  0.150000006,    3.4000001
   3156,  0.649999976,  0.150000006,    3.4000001
   3157,  0.856065989,  0.106066018,    3.4000001
   3158,  0.856065989, -0.106066018,    3.4000001
   3159, -0.649999976, -0.150000006,    3.4000001
   3160, -0.550000012, -0.150000006,    3.4000001
   3161, -0.449999988, -0.150000006,    3.4000001
   3162, -0.349999994, -0.150000006,    3.4000001
   3163,        -0.25, -0.150000006,    3.4000001
   3164, -0.150000006, -0.150000006,    3.4000001
   3165, -0.0500000007, -0.150000006,    3.4000001
   3166, 0.0500000007, -0.150000006,    3.4000001
   3167,  0.150000006, -0.150000006,    3.4000001
   3168,         0.25, -0.150000006,    3.4000001
   3169,  0.349999994, -0.150000006,    3.4000001
   3170,  0.449999988, -0.150000006,    3.4000001
   3171,  0.550000012, -0.150000006,    3.4000001
   3172,  0.649999976, -0.150000006,    3.4000001
   3173,  0.832925498, -0.0149648422,    3.4000001
   3174,  0.784100533, 0.0628456771,    3.4000001
   3175,  0.729406416, 0.0743573606,    3.4000001
   3176, -0.725353241, -0.0839191377,    3.4000001
   3177, -0.802840471, -0.0231915358,    3.4000001
   3178, -0.793433845,  0.055117581,    3.4000001
   3179,  0.777760208, -0.00484846393,    3.4000001
   3180, -0.718149543, 0.0575515591,    3.4000001
   3181,  0.779690742, -0.0679016784,    3.4000001
   3182,  0.858609617, 0.0387705304,    3.4000001
   3183,  0.720747471, -0.0668375567,    3.4000001
   3184,  0.652115285, 0.0776163116,    3.4000001
   3185, -0.713731468, -0.0208027884,    3.4000001
   3186, -0.621186674, 0.0516216531,    3.4000001
   3187,  0.621709466, -0.0393298343,    3.4000001
   3188, -0.656531751, -0.0975037366,    3.4000001
   3189,  -0.51899457, 0.0494230501,    3.4000001
   3190, -0.417587906, 0.0494504161,    3.4000001
   3191, -0.316909552, 0.0495560504,    3.4000001
   3192, -0.216774106, 0.0496912152,    3.4000001
   3193, -0.116735026, 0.0497531854,    3.4000001
   3194, -0.016591765, 0.0497845225,    3.4000001
   3195, 0.0833239034, 0.0493216105,    3.4000001
   3196,  0.183342233, 0.0492441319,    3.4000001
   3197,  0.283334643,  0.049797222,    3.4000001
   3198, -0.384422302, -0.0491131209,    3.4000001
   3199, -0.283576399, -0.0490349717,    3.4000001
   3200, -0.183385685, -0.0489701368,    3.4000001
   3201, -0.0833504274, -0.0489429086,    3.4000001
   3202, 0.0166790728, -0.0493756421,    3.4000001
   3203,  0.116620295, -0.0496055074,    3.4000001
   3204,  0.216718107, -0.0496858284,    3.4000001
   3205,  0.316866845, -0.0490500629,    3.4000001
   3206, -0.602415204, -0.050688412,    3.4000001
   3207,  0.383211523, 0.0513742641,    3.4000001
   3208,  0.481736064, 0.0548581183,    3.4000001
   3209,  0.572274268, 0.0640596077,    3.4000001
   3210, -0.488438696, -0.0494441353,    3.4000001
   3211,  0.417243272, -0.0475444123,    3.4000001
   3212,  0.518074453, -0.0447730944,    3.4000001
   3213,  0.723617315, 0.00201012497,    3.4000001
   3214,  0.863923967, 0.00721039157,    3.4000001
   3215,  0.820430756, -0.0619703084,    3.4000001
   3216, -0.847279072, 0.00760738086,    3.4000001
   3217, -0.839612186, 0.0457400791,    3.4000001
   3218, -0.784825802, -0.0766975358,    3.4000001
   3219,  0.829983056, 0.0493127294,    3.4000001
   3220,  0.665597022, 0.0122219762,    3.4000001
   3221, -0.824999988,  0.129903808,          3.5
   3222, -0.879903793,  0.075000003,          3.5
   3223, -0.899999976,           0.,          3.5
   3224, -0.879903793, -0.075000003,          3.5
   3225, -0.824999988, -0.129903808,          3.5
   3226,        -0.75,  0.150000006,          3.5
   3227,        -0.75, -0.150000006,          3.5
   3228,         0.75,  0.150000006,          3.5
   3229,  0.807402492,  0.138581932,          3.5
   3230,  0.888581932, 0.0574025139,          3.5
   3231,  0.899999976,           0.,          3.5
   3232,  0.888581932, -0.0574025139,          3.5
   3233,  0.807402492, -0.138581932,          3.5
   3234,         0.75, -0.150000006,          3.5
   3235, -0.649999976,  0.150000006,          3.5
   3236, -0.550000012,  0.150000006,          3.5
   3237, -0.449999988,  0.150000006,          3.5
   3238, -0.349999994,  0.150000006,          3.5
   3239,        -0.25,  0.150000006,          3.5
   3240, -0.150000006,  0.150000006,          3.5
   3241, -0.0500000007,  0.150000006,          3.5
   3242, 0.0500000007,  0.150000006,          3.5
   3243,  0.150000006,  0.150000006,          3.5
   3244,         0.25,  0.150000006,          3.5
   3245,  0.349999994,  0.150000006,          3.5
   3246,  0.449999988,  0.150000006,          3.5
   3247,  0.550000012,  0.150000006,          3.5
   3248,  0.649999976,  0.150000006,          3.5
   3249,  0.856065989,  0.106066018,          3.5
   3250,  0.856065989, -0.106066018,          3.5
   3251, -0.649999976, -0.150000006,          3.5
   3252, -0.550000012, -0.150000006,          3.5
   3253, -0.449999988, -0.150000006,          3.5
   3254, -0.349999994, -0.150000006,          3.5
   3255,        -0.25, -0.150000006,          3.5
   3256, -0.150000006, -0.150000006,          3.5
   3257, -0.0500000007, -0.150000006,          3.5
   3258, 0.0500000007, -0.150000006,          3.5
   3259,  0.150000006, -0.150000006,          3.5
   3260,         0.25, -0.150000006,          3.5
   3261,  0.349999994, -0.150000006,          3.5
   3262,  0.449999988, -0.150000006,          3.5
   3263,  0.550000012, -0.150000006,          3.5
   3264,  0.649999976, -0.150000006,          3.5
   3265,  0.832925498, -0.0149648422,          3.5
   3266,  0.784100533, 0.0628456771,          3.5
   3267,  0.729406416, 0.0743573606,          3.5
   3268, -0.725353241, -0.0839191377,          3.5
   3269, -0.802840471, -0.0231915358,          3.5
   3270, -0.793433845,  0.055117581,          3.5
   3271,  0.777760208, -0.00484846393,          3.5
   3272, -0.718149543, 0.0575515591,          3.5
   3273,  0.779690742, -0.0679016784,          3.5
   3274,  0.858609617, 0.0387705304,          3.5
   3275,  0.720747471, -0.0668375567,          3.5
   3276,  0.652115285, 0.0776163116,          3.5
   3277, -0.713731468, -0.0208027884,          3.5
   3278, -0.621186674, 0.0516216531,          3.5
   3279,  0.621709466, -0.0393298343,          3.5
   3280, -0.656531751, -0.0975037366,          3.5
   3281,  -0.51899457, 0.0494230501,          3.5
   3282, -0.417587906, 0.0494504161,          3.5
   3283, -0.316909552, 0.0495560504,          3.5
   3284, -0.216774106, 0.0496912152,          3.5
   3285, -0.116735026, 0.0497531854,          3.5
   3286, -0.016591765, 0.0497845225,          3.5
   3287, 0.0833239034, 0.0493216105,          3.5
   3288,  0.183342233, 0.0492441319,          3.5
   3289,  0.283334643,  0.049797222,          3.5
   3290, -0.384422302, -0.0491131209,          3.5
   3291, -0.283576399, -0.0490349717,          3.5
   3292, -0.183385685, -0.0489701368,          3.5
   3293, -0.0833504274, -0.0489429086,          3.5
   3294, 0.0166790728, -0.0493756421,          3.5
   3295,  0.116620295, -0.0496055074,          3.5
   3296,  0.216718107, -0.0496858284,          3.5
   3297,  0.316866845, -0.0490500629,          3.5
   3298, -0.602415204, -0.050688412,          3.5
   3299,  0.383211523, 0.0513742641,          3.5
   3300,  0.481736064, 0.0548581183,          3.5
   3301,  0.572274268, 0.0640596077,          3.5
   3302, -0.488438696, -0.0494441353,          3.5
   3303,  0.417243272, -0.0475444123,          3.5
   3304,  0.518074453, -0.0447730944,          3.5
   3305,  0.723617315, 0.00201012497,          3.5
   3306,  0.863923967, 0.00721039157,          3.5
   3307,  0.820430756, -0.0619703084,          3.5
   3308, -0.847279072, 0.00760738086,          3.5
   3309, -0.839612186, 0.0457400791,          3.5
   3310, -0.784825802, -0.0766975358,          3.5
   3311,  0.829983056, 0.0493127294,          3.5
   3312,  0.665597022, 0.0122219762,          3.5
   3313, -0.824999988,  0.129903808,    3.5999999
   3314, -0.879903793,  0.075000003,    3.5999999
   3315, -0.899999976,           0.,    3.5999999
   3316, -0.879903793, -0.075000003,    3.5999999
   3317, -0.824999988, -0.129903808,    3.5999999
   3318,        -0.75,  0.150000006,    3.5999999
   3319,        -0.75, -0.150000006,    3.5999999
   3320,         0.75,  0.150000006,    3.5999999
   3321,  0.807402492,  0.138581932,    3.5999999
   3322,  0.888581932, 0.0574025139,    3.5999999
   3323,  0.899999976,           0.,    3.5999999
   3324,  0.888581932, -0.0574025139,    3.5999999
   3325,  0.807402492, -0.138581932,    3.5999999
   3326,         0.75, -0.150000006,    3.5999999
   3327, -0.649999976,  0.150000006,    3.5999999
   3328, -0.550000012,  0.150000006,    3.5999999
   3329, -0.449999988,  0.150000006,    3.5999999
   3330, -0.349999994,  0.150000006,    3.5999999
   3331,        -0.25,  0.150000006,    3.5999999
   3332, -0.150000006,  0.150000006,    3.5999999
   3333, -0.0500000007,  0.150000006,    3.5999999
   3334, 0.0500000007,  0.150000006,    3.5999999
   3335,  0.150000006,  0.150000006,    3.5999999
   3336,         0.25,  0.150000006,    3.5999999
   3337,  0.349999994,  0.150000006,    3.5999999
   3338,  0.449999988,  0.150000006,    3.5999999
   3339,  0.550000012,  0.150000006,    3.5999999
   3340,  0.649999976,  0.150000006,    3.5999999
   3341,  0.856065989,  0.106066018,    3.5999999
   3342,  0.856065989, -0.106066018,    3.5999999
   3343, -0.649999976, -0.150000006,    3.5999999
   3344, -0.550000012, -0.150000006,    3.5999999
   3345, -0.449999988, -0.150000006,    3.5999999
   3346, -0.349999994, -0.150000006,    3.5999999
   3347,        -0.25, -0.150000006,    3.5999999
   3348, -0.150000006, -0.150000006,    3.5999999
   3349, -0.0500000007, -0.150000006,    3.5999999
   3350, 0.0500000007, -0.150000006,    3.5999999
   3351,  0.150000006, -0.150000006,    3.5999999
   3352,         0.25, -0.150000006,    3.5999999
   3353,  0.349999994, -0.150000006,    3.5999999
   3354,  0.449999988, -0.150000006,    3.5999999
   3355,  0.550000012, -0.150000006,    3.5999999
   3356,  0.649999976, -0.150000006,    3.5999999
   3357,  0.832925498, -0.0149648422,    3.5999999
   3358,  0.784100533, 0.0628456771,    3.5999999
   3359,  0.729406416, 0.0743573606,    3.5999999
   3360, -0.725353241, -0.0839191377,    3.5999999
   3361, -0.802840471, -0.0231915358,    3.5999999
   3362, -0.793433845,  0.055117581,    3.5999999
   3363,  0.777760208, -0.00484846393,    3.5999999
   3364, -0.718149543, 0.0575515591,    3.5999999
   3365,  0.779690742, -0.0679016784,    3.5999999
   3366,  0.858609617, 0.0387705304,    3.5999999
   3367,  0.720747471, -0.0668375567,    3.5999999
   3368,  0.652115285, 0.0776163116,    3.5999999
   3369, -0.713731468, -0.0208027884,    3.5999999
   3370, -0.621186674, 0.0516216531,    3.5999999
   3371,  0.621709466, -0.0393298343,    3.5999999
   3372, -0.656531751, -0.0975037366,    3.5999999
   3373,  -0.51899457, 0.0494230501,    3.5999999
   3374, -0.417587906, 0.0494504161,    3.5999999
   3375, -0.316909552, 0.0495560504,    3.5999999
   3376, -0.216774106, 0.0496912152,    3.5999999
   3377, -0.116735026, 0.0497531854,    3.5999999
   3378, -0.016591765, 0.0497845225,    3.5999999
   3379, 0.0833239034, 0.0493216105,    3.5999999
   3380,  0.183342233, 0.0492441319,    3.5999999
   3381,  0.283334643,  0.049797222,    3.5999999
   3382, -0.384422302, -0.0491131209,    3.5999999
   3383, -0.283576399, -0.0490349717,    3.5999999
   3384, -0.183385685, -0.0489701368,    3.5999999
   3385, -0.0833504274, -0.0489429086,    3.5999999
   3386, 0.0166790728, -0.0493756421,    3.5999999
   3387,  0.116620295, -0.0496055074,    3.5999999
   3388,  0.216718107, -0.0496858284,    3.5999999
   3389,  0.316866845, -0.0490500629,    3.5999999
   3390, -0.602415204, -0.050688412,    3.5999999
   3391,  0.383211523, 0.0513742641,    3.5999999
   3392,  0.481736064, 0.0548581183,    3.5999999
   3393,  0.572274268, 0.0640596077,    3.5999999
   3394, -0.488438696, -0.0494441353,    3.5999999
   3395,  0.417243272, -0.0475444123,    3.5999999
   3396,  0.518074453, -0.0447730944,    3.5999999
   3397,  0.723617315, 0.00201012497,    3.5999999
   3398,  0.863923967, 0.00721039157,    3.5999999
   3399,  0.820430756, -0.0619703084,    3.5999999
   3400, -0.847279072, 0.00760738086,    3.5999999
   3401, -0.839612186, 0.0457400791,    3.5999999
   3402, -0.784825802, -0.0766975358,    3.5999999
   3403,  0.829983056, 0.0493127294,    3.5999999
   3404,  0.665597022, 0.0122219762,    3.5999999
   3405, -0.824999988,  0.129903808,   3.70000005
   3406, -0.879903793,  0.075000003,   3.70000005
   3407, -0.899999976,           0.,   3.70000005
   3408, -0.879903793, -0.075000003,   3.70000005
   3409, -0.824999988, -0.129903808,   3.70000005
   3410,        -0.75,  0.150000006,   3.70000005
   3411,        -0.75, -0.150000006,   3.70000005
   3412,         0.75,  0.150000006,   3.70000005
   3413,  0.807402492,  0.138581932,   3.70000005
   3414,  0.888581932, 0.0574025139,   3.70000005
   3415,  0.899999976,           0.,   3.70000005
   3416,  0.888581932, -0.0574025139,   3.70000005
   3417,  0.807402492, -0.138581932,   3.70000005
   3418,         0.75, -0.150000006,   3.70000005
   3419, -0.649999976,  0.150000006,   3.70000005
   3420, -0.550000012,  0.150000006,   3.70000005
   3421, -0.449999988,  0.150000006,   3.70000005
   3422, -0.349999994,  0.150000006,   3.70000005
   3423,        -0.25,  0.150000006,   3.70000005
   3424, -0.150000006,  0.150000006,   3.70000005
   3425, -0.0500000007,  0.150000006,   3.70000005
   3426, 0.0500000007,  0.150000006,   3.70000005
   3427,  0.150000006,  0.150000006,   3.70000005
   3428,         0.25,  0.150000006,   3.70000005
   3429,  0.349999994,  0.150000006,   3.70000005
   3430,  0.449999988,  0.150000006,   3.70000005
   3431,  0.550000012,  0.150000006,   3.70000005
   3432,  0.649999976,  0.150000006,   3.70000005
   3433,  0.856065989,  0.106066018,   3.70000005
   3434,  0.856065989, -0.106066018,   3.70000005
   3435, -0.649999976, -0.150000006,   3.70000005
   3436, -0.550000012, -0.150000006,   3.70000005
   3437, -0.449999988, -0.150000006,   3.70000005
   3438, -0.349999994, -0.150000006,   3.70000005
   3439,        -0.25, -0.150000006,   3.70000005
   3440, -0.150000006, -0.150000006,   3.70000005
   3441, -0.0500000007, -0.150000006,   3.70000005
   3442, 0.0500000007, -0.150000006,   3.70000005
   3443,  0.150000006, -0.150000006,   3.70000005
   3444,         0.25, -0.150000006,   3.70000005
   3445,  0.349999994, -0.150000006,   3.70000005
   3446,  0.449999988, -0.150000006,   3.70000005
   3447,  0.550000012, -0.150000006,   3.70000005
   3448,  0.649999976, -0.150000006,   3.70000005
   3449,  0.832925498, -0.0149648422,   3.70000005
   3450,  0.784100533, 0.0628456771,   3.70000005
   3451,  0.729406416, 0.0743573606,   3.70000005
   3452, -0.725353241, -0.0839191377,   3.70000005
   3453, -0.802840471, -0.0231915358,   3.70000005
   3454, -0.793433845,  0.055117581,   3.70000005
   3455,  0.777760208, -0.00484846393,   3.70000005
   3456, -0.718149543, 0.0575515591,   3.70000005
   3457,  0.779690742, -0.0679016784,   3.70000005
   3458,  0.858609617, 0.0387705304,   3.70000005
   3459,  0.720747471, -0.0668375567,   3.70000005
   3460,  0.652115285, 0.0776163116,   3.70000005
   3461, -0.713731468, -0.0208027884,   3.70000005
   3462, -0.621186674, 0.0516216531,   3.70000005
   3463,  0.621709466, -0.0393298343,   3.70000005
   3464, -0.656531751, -0.0975037366,   3.70000005
   3465,  -0.51899457, 0.0494230501,   3.70000005
   3466, -0.417587906, 0.0494504161,   3.70000005
   3467, -0.316909552, 0.0495560504,   3.70000005
   3468, -0.216774106, 0.0496912152,   3.70000005
   3469, -0.116735026, 0.0497531854,   3.70000005
   3470, -0.016591765, 0.0497845225,   3.70000005
   3471, 0.0833239034, 0.0493216105,   3.70000005
   3472,  0.183342233, 0.0492441319,   3.70000005
   3473,  0.283334643,  0.049797222,   3.70000005
   3474, -0.384422302, -0.0491131209,   3.70000005
   3475, -0.283576399, -0.0490349717,   3.70000005
   3476, -0.183385685, -0.0489701368,   3.70000005
   3477, -0.0833504274, -0.0489429086,   3.70000005
   3478, 0.0166790728, -0.0493756421,   3.70000005
   3479,  0.116620295, -0.0496055074,   3.70000005
   3480,  0.216718107, -0.0496858284,   3.70000005
   3481,  0.316866845, -0.0490500629,   3.70000005
   3482, -0.602415204, -0.050688412,   3.70000005
   3483,  0.383211523, 0.0513742641,   3.70000005
   3484,  0.481736064, 0.0548581183,   3.70000005
   3485,  0.572274268, 0.0640596077,   3.70000005
   3486, -0.488438696, -0.0494441353,   3.70000005
   3487,  0.417243272, -0.0475444123,   3.70000005
   3488,  0.518074453, -0.0447730944,   3.70000005
   3489,  0.723617315, 0.00201012497,   3.70000005
   3490,  0.863923967, 0.00721039157,   3.70000005
   3491,  0.820430756, -0.0619703084,   3.70000005
   3492, -0.847279072, 0.00760738086,   3.70000005
   3493, -0.839612186, 0.0457400791,   3.70000005
   3494, -0.784825802, -0.0766975358,   3.70000005
   3495,  0.829983056, 0.0493127294,   3.70000005
   3496,  0.665597022, 0.0122219762,   3.70000005
   3497, -0.824999988,  0.129903808,   3.79999995
   3498, -0.879903793,  0.075000003,   3.79999995
   3499, -0.899999976,           0.,   3.79999995
   3500, -0.879903793, -0.075000003,   3.79999995
   3501, -0.824999988, -0.129903808,   3.79999995
   3502,        -0.75,  0.150000006,   3.79999995
   3503,        -0.75, -0.150000006,   3.79999995
   3504,         0.75,  0.150000006,   3.79999995
   3505,  0.807402492,  0.138581932,   3.79999995
   3506,  0.888581932, 0.0574025139,   3.79999995
   3507,  0.899999976,           0.,   3.79999995
   3508,  0.888581932, -0.0574025139,   3.79999995
   3509,  0.807402492, -0.138581932,   3.79999995
   3510,         0.75, -0.150000006,   3.79999995
   3511, -0.649999976,  0.150000006,   3.79999995
   3512, -0.550000012,  0.150000006,   3.79999995
   3513, -0.449999988,  0.150000006,   3.79999995
   3514, -0.349999994,  0.150000006,   3.79999995
   3515,        -0.25,  0.150000006,   3.79999995
   3516, -0.150000006,  0.150000006,   3.79999995
   3517, -0.0500000007,  0.150000006,   3.79999995
   3518, 0.0500000007,  0.150000006,   3.79999995
   3519,  0.150000006,  0.150000006,   3.79999995
   3520,         0.25,  0.150000006,   3.79999995
   3521,  0.349999994,  0.150000006,   3.79999995
   3522,  0.449999988,  0.150000006,   3.79999995
   3523,  0.550000012,  0.150000006,   3.79999995
   3524,  0.649999976,  0.150000006,   3.79999995
   3525,  0.856065989,  0.106066018,   3.79999995
   3526,  0.856065989, -0.106066018,   3.79999995
   3527, -0.649999976, -0.150000006,   3.79999995
   3528, -0.550000012, -0.150000006,   3.79999995
   3529, -0.449999988, -0.150000006,   3.79999995
   3530, -0.349999994, -0.150000006,   3.79999995
   3531,        -0.25, -0.150000006,   3.79999995
   3532, -0.150000006, -0.150000006,   3.79999995
   3533, -0.0500000007, -0.150000006,   3.79999995
   3534, 0.0500000007, -0.150000006,   3.79999995
   3535,  0.150000006, -0.150000006,   3.79999995
   3536,         0.25, -0.150000006,   3.79999995
   3537,  0.349999994, -0.150000006,   3.79999995
   3538,  0.449999988, -0.150000006,   3.79999995
   3539,  0.550000012, -0.150000006,   3.79999995
   3540,  0.649999976, -0.150000006,   3.79999995
   3541,  0.832925498, -0.0149648422,   3.79999995
   3542,  0.784100533, 0.0628456771,   3.79999995
   3543,  0.729406416, 0.0743573606,   3.79999995
   3544, -0.725353241, -0.0839191377,   3.79999995
   3545, -0.802840471, -0.0231915358,   3.79999995
   3546, -0.793433845,  0.055117581,   3.79999995
   3547,  0.777760208, -0.00484846393,   3.79999995
   3548, -0.718149543, 0.0575515591,   3.79999995
   3549,  0.779690742, -0.0679016784,   3.79999995
   3550,  0.858609617, 0.0387705304,   3.79999995
   3551,  0.720747471, -0.0668375567,   3.79999995
   3552,  0.652115285, 0.0776163116,   3.79999995
   3553, -0.713731468, -0.0208027884,   3.79999995
   3554, -0.621186674, 0.0516216531,   3.79999995
   3555,  0.621709466, -0.0393298343,   3.79999995
   3556, -0.656531751, -0.0975037366,   3.79999995
   3557,  -0.51899457, 0.0494230501,   3.79999995
   3558, -0.417587906, 0.0494504161,   3.79999995
   3559, -0.316909552, 0.0495560504,   3.79999995
   3560, -0.216774106, 0.0496912152,   3.79999995
   3561, -0.116735026, 0.0497531854,   3.79999995
   3562, -0.016591765, 0.0497845225,   3.79999995
   3563, 0.0833239034, 0.0493216105,   3.79999995
   3564,  0.183342233, 0.0492441319,   3.79999995
   3565,  0.283334643,  0.049797222,   3.79999995
   3566, -0.384422302, -0.0491131209,   3.79999995
   3567, -0.283576399, -0.0490349717,   3.79999995
   3568, -0.183385685, -0.0489701368,   3.79999995
   3569, -0.0833504274, -0.0489429086,   3.79999995
   3570, 0.0166790728, -0.0493756421,   3.79999995
   3571,  0.116620295, -0.0496055074,   3.79999995
   3572,  0.216718107, -0.0496858284,   3.79999995
   3573,  0.316866845, -0.0490500629,   3.79999995
   3574, -0.602415204, -0.050688412,   3.79999995
   3575,  0.383211523, 0.0513742641,   3.79999995
   3576,  0.481736064, 0.0548581183,   3.79999995
   3577,  0.572274268, 0.0640596077,   3.79999995
   3578, -0.488438696, -0.0494441353,   3.79999995
   3579,  0.417243272, -0.0475444123,   3.79999995
   3580,  0.518074453, -0.0447730944,   3.79999995
   3581,  0.723617315, 0.00201012497,   3.79999995
   3582,  0.863923967, 0.00721039157,   3.79999995
   3583,  0.820430756, -0.0619703084,   3.79999995
   3584, -0.847279072, 0.00760738086,   3.79999995
   3585, -0.839612186, 0.0457400791,   3.79999995
   3586, -0.784825802, -0.0766975358,   3.79999995
   3587,  0.829983056, 0.0493127294,   3.79999995
   3588,  0.665597022, 0.0122219762,   3.79999995
   3589, -0.824999988,  0.129903808,    3.9000001
   3590, -0.879903793,  0.075000003,    3.9000001
   3591, -0.899999976,           0.,    3.9000001
   3592, -0.879903793, -0.075000003,    3.9000001
   3593, -0.824999988, -0.129903808,    3.9000001
   3594,        -0.75,  0.150000006,    3.9000001
   3595,        -0.75, -0.150000006,    3.9000001
   3596,         0.75,  0.150000006,    3.9000001
   3597,  0.807402492,  0.138581932,    3.9000001
   3598,  0.888581932, 0.0574025139,    3.9000001
   3599,  0.899999976,           0.,    3.9000001
   3600,  0.888581932, -0.0574025139,    3.9000001
   3601,  0.807402492, -0.138581932,    3.9000001
   3602,         0.75, -0.150000006,    3.9000001
   3603, -0.649999976,  0.150000006,    3.9000001
   3604, -0.550000012,  0.150000006,    3.9000001
   3605, -0.449999988,  0.150000006,    3.9000001
   3606, -0.349999994,  0.150000006,    3.9000001
   3607,        -0.25,  0.150000006,    3.9000001
   3608, -0.150000006,  0.150000006,    3.9000001
   3609, -0.0500000007,  0.150000006,    3.9000001
   3610, 0.0500000007,  0.150000006,    3.9000001
   3611,  0.150000006,  0.150000006,    3.9000001
   3612,         0.25,  0.150000006,    3.9000001
   3613,  0.349999994,  0.150000006,    3.9000001
   3614,  0.449999988,  0.150000006,    3.9000001
   3615,  0.550000012,  0.150000006,    3.9000001
   3616,  0.649999976,  0.150000006,    3.9000001
   3617,  0.856065989,  0.106066018,    3.9000001
   3618,  0.856065989, -0.106066018,    3.9000001
   3619, -0.649999976, -0.150000006,    3.9000001
   3620, -0.550000012, -0.150000006,    3.9000001
   3621, -0.449999988, -0.150000006,    3.9000001
   3622, -0.349999994, -0.150000006,    3.9000001
   3623,        -0.25, -0.150000006,    3.9000001
   3624, -0.150000006, -0.150000006,    3.9000001
   3625, -0.0500000007, -0.150000006,    3.9000001
   3626, 0.0500000007, -0.150000006,    3.9000001
   3627,  0.150000006, -0.150000006,    3.9000001
   3628,         0.25, -0.150000006,    3.9000001
   3629,  0.349999994, -0.150000006,    3.9000001
   3630,  0.449999988, -0.150000006,    3.9000001
   3631,  0.550000012, -0.150000006,    3.9000001
   3632,  0.649999976, -0.150000006,    3.9000001
   3633,  0.832925498, -0.0149648422,    3.9000001
   3634,  0.784100533, 0.0628456771,    3.9000001
   3635,  0.729406416, 0.0743573606,    3.9000001
   3636, -0.725353241, -0.0839191377,    3.9000001
   3637, -0.802840471, -0.0231915358,    3.9000001
   3638, -0.793433845,  0.055117581,    3.9000001
   3639,  0.777760208, -0.00484846393,    3.9000001
   3640, -0.718149543, 0.0575515591,    3.9000001
   3641,  0.779690742, -0.0679016784,    3.9000001
   3642,  0.858609617, 0.0387705304,    3.9000001
   3643,  0.720747471, -0.0668375567,    3.9000001
   3644,  0.652115285, 0.0776163116,    3.9000001
   3645, -0.713731468, -0.0208027884,    3.9000001
   3646, -0.621186674, 0.0516216531,    3.9000001
   3647,  0.621709466, -0.0393298343,    3.9000001
   3648, -0.656531751, -0.0975037366,    3.9000001
   3649,  -0.51899457, 0.0494230501,    3.9000001
   3650, -0.417587906, 0.0494504161,    3.9000001
   3651, -0.316909552, 0.0495560504,    3.9000001
   3652, -0.216774106, 0.0496912152,    3.9000001
   3653, -0.116735026, 0.0497531854,    3.9000001
   3654, -0.016591765, 0.0497845225,    3.9000001
   3655, 0.0833239034, 0.0493216105,    3.9000001
   3656,  0.183342233, 0.0492441319,    3.9000001
   3657,  0.283334643,  0.049797222,    3.9000001
   3658, -0.384422302, -0.0491131209,    3.9000001
   3659, -0.283576399, -0.0490349717,    3.9000001
   3660, -0.183385685, -0.0489701368,    3.9000001
   3661, -0.0833504274, -0.0489429086,    3.9000001
   3662, 0.0166790728, -0.0493756421,    3.9000001
   3663,  0.116620295, -0.0496055074,    3.9000001
   3664,  0.216718107, -0.0496858284,    3.9000001
   3665,  0.316866845, -0.0490500629,    3.9000001
   3666, -0.602415204, -0.050688412,    3.9000001
   3667,  0.383211523, 0.0513742641,    3.9000001
   3668,  0.481736064, 0.0548581183,    3.9000001
   3669,  0.572274268, 0.0640596077,    3.9000001
   3670, -0.488438696, -0.0494441353,    3.9000001
   3671,  0.417243272, -0.0475444123,    3.9000001
   3672,  0.518074453, -0.0447730944,    3.9000001
   3673,  0.723617315, 0.00201012497,    3.9000001
   3674,  0.863923967, 0.00721039157,    3.9000001
   3675,  0.820430756, -0.0619703084,    3.9000001
   3676, -0.847279072, 0.00760738086,    3.9000001
   3677, -0.839612186, 0.0457400791,    3.9000001
   3678, -0.784825802, -0.0766975358,    3.9000001
   3679,  0.829983056, 0.0493127294,    3.9000001
   3680,  0.665597022, 0.0122219762,    3.9000001
   3681, -0.824999988,  0.129903808,           4.
   3682, -0.879903793,  0.075000003,           4.
   3683, -0.899999976,           0.,           4.
   3684, -0.879903793, -0.075000003,           4.
   3685, -0.824999988, -0.129903808,           4.
   3686,        -0.75,  0.150000006,           4.
   3687,        -0.75, -0.150000006,           4.
   3688,         0.75,  0.150000006,           4.
   3689,  0.807402492,  0.138581932,           4.
   3690,  0.888581932, 0.0574025139,           4.
   3691,  0.899999976,           0.,           4.
   3692,  0.888581932, -0.0574025139,           4.
   3693,  0.807402492, -0.138581932,           4.
   3694,         0.75, -0.150000006,           4.
   3695, -0.649999976,  0.150000006,           4.
   3696, -0.550000012,  0.150000006,           4.
   3697, -0.449999988,  0.150000006,           4.
   3698, -0.349999994,  0.150000006,           4.
   3699,        -0.25,  0.150000006,           4.
   3700, -0.150000006,  0.150000006,           4.
   3701, -0.0500000007,  0.150000006,           4.
   3702, 0.0500000007,  0.150000006,           4.
   3703,  0.150000006,  0.150000006,           4.
   3704,         0.25,  0.150000006,           4.
   3705,  0.349999994,  0.150000006,           4.
   3706,  0.449999988,  0.150000006,           4.
   3707,  0.550000012,  0.150000006,           4.
   3708,  0.649999976,  0.150000006,           4.
   3709,  0.856065989,  0.106066018,           4.
   3710,  0.856065989, -0.106066018,           4.
   3711, -0.649999976, -0.150000006,           4.
   3712, -0.550000012, -0.150000006,           4.
   3713, -0.449999988, -0.150000006,           4.
   3714, -0.349999994, -0.150000006,           4.
   3715,        -0.25, -0.150000006,           4.
   3716, -0.150000006, -0.150000006,           4.
   3717, -0.0500000007, -0.150000006,           4.
   3718, 0.0500000007, -0.150000006,           4.
   3719,  0.150000006, -0.150000006,           4.
   3720,         0.25, -0.150000006,           4.
   3721,  0.349999994, -0.150000006,           4.
   3722,  0.449999988, -0.150000006,           4.
   3723,  0.550000012, -0.150000006,           4.
   3724,  0.649999976, -0.150000006,           4.
   3725,  0.832925498, -0.0149648422,           4.
   3726,  0.784100533, 0.0628456771,           4.
   3727,  0.729406416, 0.0743573606,           4.
   3728, -0.725353241, -0.0839191377,           4.
   3729, -0.802840471, -0.0231915358,           4.
   3730, -0.793433845,  0.055117581,           4.
   3731,  0.777760208, -0.00484846393,           4.
   3732, -0.718149543, 0.0575515591,           4.
   3733,  0.779690742, -0.0679016784,           4.
   3734,  0.858609617, 0.0387705304,           4.
   3735,  0.720747471, -0.0668375567,           4.
   3736,  0.652115285, 0.0776163116,           4.
   3737, -0.713731468, -0.0208027884,           4.
   3738, -0.621186674, 0.0516216531,           4.
   3739,  0.621709466, -0.0393298343,           4.
   3740, -0.656531751, -0.0975037366,           4.
   3741,  -0.51899457, 0.0494230501,           4.
   3742, -0.417587906, 0.0494504161,           4.
   3743, -0.316909552, 0.0495560504,           4.
   3744, -0.216774106, 0.0496912152,           4.
   3745, -0.116735026, 0.0497531854,           4.
   3746, -0.016591765, 0.0497845225,           4.
   3747, 0.0833239034, 0.0493216105,           4.
   3748,  0.183342233, 0.0492441319,           4.
   3749,  0.283334643,  0.049797222,           4.
   3750, -0.384422302, -0.0491131209,           4.
   3751, -0.283576399, -0.0490349717,           4.
   3752, -0.183385685, -0.0489701368,           4.
   3753, -0.0833504274, -0.0489429086,           4.
   3754, 0.0166790728, -0.0493756421,           4.
   3755,  0.116620295, -0.0496055074,           4.
   3756,  0.216718107, -0.0496858284,           4.
   3757,  0.316866845, -0.0490500629,           4.
   3758, -0.602415204, -0.050688412,           4.
   3759,  0.383211523, 0.0513742641,           4.
   3760,  0.481736064, 0.0548581183,           4.
   3761,  0.572274268, 0.0640596077,           4.
   3762, -0.488438696, -0.0494441353,           4.
   3763,  0.417243272, -0.0475444123,           4.
   3764,  0.518074453, -0.0447730944,           4.
   3765,  0.723617315, 0.00201012497,           4.
   3766,  0.863923967, 0.00721039157,           4.
   3767,  0.820430756, -0.0619703084,           4.
   3768, -0.847279072, 0.00760738086,           4.
   3769, -0.839612186, 0.0457400791,           4.
   3770, -0.784825802, -0.0766975358,           4.
   3771,  0.829983056, 0.0493127294,           4.
   3772,  0.665597022, 0.0122219762,           4.
   3773, -0.824999988,  0.129903808,    4.0999999
   3774, -0.879903793,  0.075000003,    4.0999999
   3775, -0.899999976,           0.,    4.0999999
   3776, -0.879903793, -0.075000003,    4.0999999
   3777, -0.824999988, -0.129903808,    4.0999999
   3778,        -0.75,  0.150000006,    4.0999999
   3779,        -0.75, -0.150000006,    4.0999999
   3780,         0.75,  0.150000006,    4.0999999
   3781,  0.807402492,  0.138581932,    4.0999999
   3782,  0.888581932, 0.0574025139,    4.0999999
   3783,  0.899999976,           0.,    4.0999999
   3784,  0.888581932, -0.0574025139,    4.0999999
   3785,  0.807402492, -0.138581932,    4.0999999
   3786,         0.75, -0.150000006,    4.0999999
   3787, -0.649999976,  0.150000006,    4.0999999
   3788, -0.550000012,  0.150000006,    4.0999999
   3789, -0.449999988,  0.150000006,    4.0999999
   3790, -0.349999994,  0.150000006,    4.0999999
   3791,        -0.25,  0.150000006,    4.0999999
   3792, -0.150000006,  0.150000006,    4.0999999
   3793, -0.0500000007,  0.150000006,    4.0999999
   3794, 0.0500000007,  0.150000006,    4.0999999
   3795,  0.150000006,  0.150000006,    4.0999999
   3796,         0.25,  0.150000006,    4.0999999
   3797,  0.349999994,  0.150000006,    4.0999999
   3798,  0.449999988,  0.150000006,    4.0999999
   3799,  0.550000012,  0.150000006,    4.0999999
   3800,  0.649999976,  0.150000006,    4.0999999
   3801,  0.856065989,  0.106066018,    4.0999999
   3802,  0.856065989, -0.106066018,    4.0999999
   3803, -0.649999976, -0.150000006,    4.0999999
   3804, -0.550000012, -0.150000006,    4.0999999
   3805, -0.449999988, -0.150000006,    4.0999999
   3806, -0.349999994, -0.150000006,    4.0999999
   3807,        -0.25, -0.150000006,    4.0999999
   3808, -0.150000006, -0.150000006,    4.0999999
   3809, -0.0500000007, -0.150000006,    4.0999999
   3810, 0.0500000007, -0.150000006,    4.0999999
   3811,  0.150000006, -0.150000006,    4.0999999
   3812,         0.25, -0.150000006,    4.0999999
   3813,  0.349999994, -0.150000006,    4.0999999
   3814,  0.449999988, -0.150000006,    4.0999999
   3815,  0.550000012, -0.150000006,    4.0999999
   3816,  0.649999976, -0.150000006,    4.0999999
   3817,  0.832925498, -0.0149648422,    4.0999999
   3818,  0.784100533, 0.0628456771,    4.0999999
   3819,  0.729406416, 0.0743573606,    4.0999999
   3820, -0.725353241, -0.0839191377,    4.0999999
   3821, -0.802840471, -0.0231915358,    4.0999999
   3822, -0.793433845,  0.055117581,    4.0999999
   3823,  0.777760208, -0.00484846393,    4.0999999
   3824, -0.718149543, 0.0575515591,    4.0999999
   3825,  0.779690742, -0.0679016784,    4.0999999
   3826,  0.858609617, 0.0387705304,    4.0999999
   3827,  0.720747471, -0.0668375567,    4.0999999
   3828,  0.652115285, 0.0776163116,    4.0999999
   3829, -0.713731468, -0.0208027884,    4.0999999
   3830, -0.621186674, 0.0516216531,    4.0999999
   3831,  0.621709466, -0.0393298343,    4.0999999
   3832, -0.656531751, -0.0975037366,    4.0999999
   3833,  -0.51899457, 0.0494230501,    4.0999999
   3834, -0.417587906, 0.0494504161,    4.0999999
   3835, -0.316909552, 0.0495560504,    4.0999999
   3836, -0.216774106, 0.0496912152,    4.0999999
   3837, -0.116735026, 0.0497531854,    4.0999999
   3838, -0.016591765, 0.0497845225,    4.0999999
   3839, 0.0833239034, 0.0493216105,    4.0999999
   3840,  0.183342233, 0.0492441319,    4.0999999
   3841,  0.283334643,  0.049797222,    4.0999999
   3842, -0.384422302, -0.0491131209,    4.0999999
   3843, -0.283576399, -0.0490349717,    4.0999999
   3844, -0.183385685, -0.0489701368,    4.0999999
   3845, -0.0833504274, -0.0489429086,    4.0999999
   3846, 0.0166790728, -0.0493756421,    4.0999999
   3847,  0.116620295, -0.0496055074,    4.0999999
   3848,  0.216718107, -0.0496858284,    4.0999999
   3849,  0.316866845, -0.0490500629,    4.0999999
   3850, -0.602415204, -0.050688412,    4.0999999
   3851,  0.383211523, 0.0513742641,    4.0999999
   3852,  0.481736064, 0.0548581183,    4.0999999
   3853,  0.572274268, 0.0640596077,    4.0999999
   3854, -0.488438696, -0.0494441353,    4.0999999
   3855,  0.417243272, -0.0475444123,    4.0999999
   3856,  0.518074453, -0.0447730944,    4.0999999
   3857,  0.723617315, 0.00201012497,    4.0999999
   3858,  0.863923967, 0.00721039157,    4.0999999
   3859,  0.820430756, -0.0619703084,    4.0999999
   3860, -0.847279072, 0.00760738086,    4.0999999
   3861, -0.839612186, 0.0457400791,    4.0999999
   3862, -0.784825802, -0.0766975358,    4.0999999
   3863,  0.829983056, 0.0493127294,    4.0999999
   3864,  0.665597022, 0.0122219762,    4.0999999
   3865, -0.824999988,  0.129903808,   4.19999981
   3866, -0.879903793,  0.075000003,   4.19999981
   3867, -0.899999976,           0.,   4.19999981
   3868, -0.879903793, -0.075000003,   4.19999981
   3869, -0.824999988, -0.129903808,   4.19999981
   3870,        -0.75,  0.150000006,   4.19999981
   3871,        -0.75, -0.150000006,   4.19999981
   3872,         0.75,  0.150000006,   4.19999981
   3873,  0.807402492,  0.138581932,   4.19999981
   3874,  0.888581932, 0.0574025139,   4.19999981
   3875,  0.899999976,           0.,   4.19999981
   3876,  0.888581932, -0.0574025139,   4.19999981
   3877,  0.807402492, -0.138581932,   4.19999981
   3878,         0.75, -0.150000006,   4.19999981
   3879, -0.649999976,  0.150000006,   4.19999981
   3880, -0.550000012,  0.150000006,   4.19999981
   3881, -0.449999988,  0.150000006,   4.19999981
   3882, -0.349999994,  0.150000006,   4.19999981
   3883,        -0.25,  0.150000006,   4.19999981
   3884, -0.150000006,  0.150000006,   4.19999981
   3885, -0.0500000007,  0.150000006,   4.19999981
   3886, 0.0500000007,  0.150000006,   4.19999981
   3887,  0.150000006,  0.150000006,   4.19999981
   3888,         0.25,  0.150000006,   4.19999981
   3889,  0.349999994,  0.150000006,   4.19999981
   3890,  0.449999988,  0.150000006,   4.19999981
   3891,  0.550000012,  0.150000006,   4.19999981
   3892,  0.649999976,  0.150000006,   4.19999981
   3893,  0.856065989,  0.106066018,   4.19999981
   3894,  0.856065989, -0.106066018,   4.19999981
   3895, -0.649999976, -0.150000006,   4.19999981
   3896, -0.550000012, -0.150000006,   4.19999981
   3897, -0.449999988, -0.150000006,   4.19999981
   3898, -0.349999994, -0.150000006,   4.19999981
   3899,        -0.25, -0.150000006,   4.19999981
   3900, -0.150000006, -0.150000006,   4.19999981
   3901, -0.0500000007, -0.150000006,   4.19999981
   3902, 0.0500000007, -0.150000006,   4.19999981
   3903,  0.150000006, -0.150000006,   4.19999981
   3904,         0.25, -0.150000006,   4.19999981
   3905,  0.349999994, -0.150000006,   4.19999981
   3906,  0.449999988, -0.150000006,   4.19999981
   3907,  0.550000012, -0.150000006,   4.19999981
   3908,  0.649999976, -0.150000006,   4.19999981
   3909,  0.832925498, -0.0149648422,   4.19999981
   3910,  0.784100533, 0.0628456771,   4.19999981
   3911,  0.729406416, 0.0743573606,   4.19999981
   3912, -0.725353241, -0.0839191377,   4.19999981
   3913, -0.802840471, -0.0231915358,   4.19999981
   3914, -0.793433845,  0.055117581,   4.19999981
   3915,  0.777760208, -0.00484846393,   4.19999981
   3916, -0.718149543, 0.0575515591,   4.19999981
   3917,  0.779690742, -0.0679016784,   4.19999981
   3918,  0.858609617, 0.0387705304,   4.19999981
   3919,  0.720747471, -0.0668375567,   4.19999981
   3920,  0.652115285, 0.0776163116,   4.19999981
   3921, -0.713731468, -0.0208027884,   4.19999981
   3922, -0.621186674, 0.0516216531,   4.19999981
   3923,  0.621709466, -0.0393298343,   4.19999981
   3924, -0.656531751, -0.0975037366,   4.19999981
   3925,  -0.51899457, 0.0494230501,   4.19999981
   3926, -0.417587906, 0.0494504161,   4.19999981
   3927, -0.316909552, 0.0495560504,   4.19999981
   3928, -0.216774106, 0.0496912152,   4.19999981
   3929, -0.116735026, 0.0497531854,   4.19999981
   3930, -0.016591765, 0.0497845225,   4.19999981
   3931, 0.0833239034, 0.0493216105,   4.19999981
   3932,  0.183342233, 0.0492441319,   4.19999981
   3933,  0.283334643,  0.049797222,   4.19999981
   3934, -0.384422302, -0.0491131209,   4.19999981
   3935, -0.283576399, -0.0490349717,   4.19999981
   3936, -0.183385685, -0.0489701368,   4.19999981
   3937, -0.0833504274, -0.0489429086,   4.19999981
   3938, 0.0166790728, -0.0493756421,   4.19999981
   3939,  0.116620295, -0.0496055074,   4.19999981
   3940,  0.216718107, -0.0496858284,   4.19999981
   3941,  0.316866845, -0.0490500629,   4.19999981
   3942, -0.602415204, -0.050688412,   4.19999981
   3943,  0.383211523, 0.0513742641,   4.19999981
   3944,  0.481736064, 0.0548581183,   4.19999981
   3945,  0.572274268, 0.0640596077,   4.19999981
   3946, -0.488438696, -0.0494441353,   4.19999981
   3947,  0.417243272, -0.0475444123,   4.19999981
   3948,  0.518074453, -0.0447730944,   4.19999981
   3949,  0.723617315, 0.00201012497,   4.19999981
   3950,  0.863923967, 0.00721039157,   4.19999981
   3951,  0.820430756, -0.0619703084,   4.19999981
   3952, -0.847279072, 0.00760738086,   4.19999981
   3953, -0.839612186, 0.0457400791,   4.19999981
   3954, -0.784825802, -0.0766975358,   4.19999981
   3955,  0.829983056, 0.0493127294,   4.19999981
   3956,  0.665597022, 0.0122219762,   4.19999981
   3957, -0.824999988,  0.129903808,   4.30000019
   3958, -0.879903793,  0.075000003,   4.30000019
   3959, -0.899999976,           0.,   4.30000019
   3960, -0.879903793, -0.075000003,   4.30000019
   3961, -0.824999988, -0.129903808,   4.30000019
   3962,        -0.75,  0.150000006,   4.30000019
   3963,        -0.75, -0.150000006,   4.30000019
   3964,         0.75,  0.150000006,   4.30000019
   3965,  0.807402492,  0.138581932,   4.30000019
   3966,  0.888581932, 0.0574025139,   4.30000019
   3967,  0.899999976,           0.,   4.30000019
   3968,  0.888581932, -0.0574025139,   4.30000019
   3969,  0.807402492, -0.138581932,   4.30000019
   3970,         0.75, -0.150000006,   4.30000019
   3971, -0.649999976,  0.150000006,   4.30000019
   3972, -0.550000012,  0.150000006,   4.30000019
   3973, -0.449999988,  0.150000006,   4.30000019
   3974, -0.349999994,  0.150000006,   4.30000019
   3975,        -0.25,  0.150000006,   4.30000019
   3976, -0.150000006,  0.150000006,   4.30000019
   3977, -0.0500000007,  0.150000006,   4.30000019
   3978, 0.0500000007,  0.150000006,   4.30000019
   3979,  0.150000006,  0.150000006,   4.30000019
   3980,         0.25,  0.150000006,   4.30000019
   3981,  0.349999994,  0.150000006,   4.30000019
   3982,  0.449999988,  0.150000006,   4.30000019
   3983,  0.550000012,  0.150000006,   4.30000019
   3984,  0.649999976,  0.150000006,   4.30000019
   3985,  0.856065989,  0.106066018,   4.30000019
   3986,  0.856065989, -0.106066018,   4.30000019
   3987, -0.649999976, -0.150000006,   4.30000019
   3988, -0.550000012, -0.150000006,   4.30000019
   3989, -0.449999988, -0.150000006,   4.30000019
   3990, -0.349999994, -0.150000006,   4.30000019
   3991,        -0.25, -0.150000006,   4.30000019
   3992, -0.150000006, -0.150000006,   4.30000019
   3993, -0.0500000007, -0.150000006,   4.30000019
   3994, 0.0500000007, -0.150000006,   4.30000019
   3995,  0.150000006, -0.150000006,   4.30000019
   3996,         0.25, -0.150000006,   4.30000019
   3997,  0.349999994, -0.150000006,   4.30000019
   3998,  0.449999988, -0.150000006,   4.30000019
   3999,  0.550000012, -0.150000006,   4.30000019
   4000,  0.649999976, -0.150000006,   4.30000019
   4001,  0.832925498, -0.0149648422,   4.30000019
   4002,  0.784100533, 0.0628456771,   4.30000019
   4003,  0.729406416, 0.0743573606,   4.30000019
   4004, -0.725353241, -0.0839191377,   4.30000019
   4005, -0.802840471, -0.0231915358,   4.30000019
   4006, -0.793433845,  0.055117581,   4.30000019
   4007,  0.777760208, -0.00484846393,   4.30000019
   4008, -0.718149543, 0.0575515591,   4.30000019
   4009,  0.779690742, -0.0679016784,   4.30000019
   4010,  0.858609617, 0.0387705304,   4.30000019
   4011,  0.720747471, -0.0668375567,   4.30000019
   4012,  0.652115285, 0.0776163116,   4.30000019
   4013, -0.713731468, -0.0208027884,   4.30000019
   4014, -0.621186674, 0.0516216531,   4.30000019
   4015,  0.621709466, -0.0393298343,   4.30000019
   4016, -0.656531751, -0.0975037366,   4.30000019
   4017,  -0.51899457, 0.0494230501,   4.30000019
   4018, -0.417587906, 0.0494504161,   4.30000019
   4019, -0.316909552, 0.0495560504,   4.30000019
   4020, -0.216774106, 0.0496912152,   4.30000019
   4021, -0.116735026, 0.0497531854,   4.30000019
   4022, -0.016591765, 0.0497845225,   4.30000019
   4023, 0.0833239034, 0.0493216105,   4.30000019
   4024,  0.183342233, 0.0492441319,   4.30000019
   4025,  0.283334643,  0.049797222,   4.30000019
   4026, -0.384422302, -0.0491131209,   4.30000019
   4027, -0.283576399, -0.0490349717,   4.30000019
   4028, -0.183385685, -0.0489701368,   4.30000019
   4029, -0.0833504274, -0.0489429086,   4.30000019
   4030, 0.0166790728, -0.0493756421,   4.30000019
   4031,  0.116620295, -0.0496055074,   4.30000019
   4032,  0.216718107, -0.0496858284,   4.30000019
   4033,  0.316866845, -0.0490500629,   4.30000019
   4034, -0.602415204, -0.050688412,   4.30000019
   4035,  0.383211523, 0.0513742641,   4.30000019
   4036,  0.481736064, 0.0548581183,   4.30000019
   4037,  0.572274268, 0.0640596077,   4.30000019
   4038, -0.488438696, -0.0494441353,   4.30000019
   4039,  0.417243272, -0.0475444123,   4.30000019
   4040,  0.518074453, -0.0447730944,   4.30000019
   4041,  0.723617315, 0.00201012497,   4.30000019
   4042,  0.863923967, 0.00721039157,   4.30000019
   4043,  0.820430756, -0.0619703084,   4.30000019
   4044, -0.847279072, 0.00760738086,   4.30000019
   4045, -0.839612186, 0.0457400791,   4.30000019
   4046, -0.784825802, -0.0766975358,   4.30000019
   4047,  0.829983056, 0.0493127294,   4.30000019
   4048,  0.665597022, 0.0122219762,   4.30000019
   4049, -0.824999988,  0.129903808,    4.4000001
   4050, -0.879903793,  0.075000003,    4.4000001
   4051, -0.899999976,           0.,    4.4000001
   4052, -0.879903793, -0.075000003,    4.4000001
   4053, -0.824999988, -0.129903808,    4.4000001
   4054,        -0.75,  0.150000006,    4.4000001
   4055,        -0.75, -0.150000006,    4.4000001
   4056,         0.75,  0.150000006,    4.4000001
   4057,  0.807402492,  0.138581932,    4.4000001
   4058,  0.888581932, 0.0574025139,    4.4000001
   4059,  0.899999976,           0.,    4.4000001
   4060,  0.888581932, -0.0574025139,    4.4000001
   4061,  0.807402492, -0.138581932,    4.4000001
   4062,         0.75, -0.150000006,    4.4000001
   4063, -0.649999976,  0.150000006,    4.4000001
   4064, -0.550000012,  0.150000006,    4.4000001
   4065, -0.449999988,  0.150000006,    4.4000001
   4066, -0.349999994,  0.150000006,    4.4000001
   4067,        -0.25,  0.150000006,    4.4000001
   4068, -0.150000006,  0.150000006,    4.4000001
   4069, -0.0500000007,  0.150000006,    4.4000001
   4070, 0.0500000007,  0.150000006,    4.4000001
   4071,  0.150000006,  0.150000006,    4.4000001
   4072,         0.25,  0.150000006,    4.4000001
   4073,  0.349999994,  0.150000006,    4.4000001
   4074,  0.449999988,  0.150000006,    4.4000001
   4075,  0.550000012,  0.150000006,    4.4000001
   4076,  0.649999976,  0.150000006,    4.4000001
   4077,  0.856065989,  0.106066018,    4.4000001
   4078,  0.856065989, -0.106066018,    4.4000001
   4079, -0.649999976, -0.150000006,    4.4000001
   4080, -0.550000012, -0.150000006,    4.4000001
   4081, -0.449999988, -0.150000006,    4.4000001
   4082, -0.349999994, -0.150000006,    4.4000001
   4083,        -0.25, -0.150000006,    4.4000001
   4084, -0.150000006, -0.150000006,    4.4000001
   4085, -0.0500000007, -0.150000006,    4.4000001
   4086, 0.0500000007, -0.150000006,    4.4000001
   4087,  0.150000006, -0.150000006,    4.4000001
   4088,         0.25, -0.150000006,    4.4000001
   4089,  0.349999994, -0.150000006,    4.4000001
   4090,  0.449999988, -0.150000006,    4.4000001
   4091,  0.550000012, -0.150000006,    4.4000001
   4092,  0.649999976, -0.150000006,    4.4000001
   4093,  0.832925498, -0.0149648422,    4.4000001
   4094,  0.784100533, 0.0628456771,    4.4000001
   4095,  0.729406416, 0.0743573606,    4.4000001
   4096, -0.725353241, -0.0839191377,    4.4000001
   4097, -0.802840471, -0.0231915358,    4.4000001
   4098, -0.793433845,  0.055117581,    4.4000001
   4099,  0.777760208, -0.00484846393,    4.4000001
   4100, -0.718149543, 0.0575515591,    4.4000001
   4101,  0.779690742, -0.0679016784,    4.4000001
   4102,  0.858609617, 0.0387705304,    4.4000001
   4103,  0.720747471, -0.0668375567,    4.4000001
   4104,  0.652115285, 0.0776163116,    4.4000001
   4105, -0.713731468, -0.0208027884,    4.4000001
   4106, -0.621186674, 0.0516216531,    4.4000001
   4107,  0.621709466, -0.0393298343,    4.4000001
   4108, -0.656531751, -0.0975037366,    4.4000001
   4109,  -0.51899457, 0.0494230501,    4.4000001
   4110, -0.417587906, 0.0494504161,    4.4000001
   4111, -0.316909552, 0.0495560504,    4.4000001
   4112, -0.216774106, 0.0496912152,    4.4000001
   4113, -0.116735026, 0.0497531854,    4.4000001
   4114, -0.016591765, 0.0497845225,    4.4000001
   4115, 0.0833239034, 0.0493216105,    4.4000001
   4116,  0.183342233, 0.0492441319,    4.4000001
   4117,  0.283334643,  0.049797222,    4.4000001
   4118, -0.384422302, -0.0491131209,    4.4000001
   4119, -0.283576399, -0.0490349717,    4.4000001
   4120, -0.183385685, -0.0489701368,    4.4000001
   4121, -0.0833504274, -0.0489429086,    4.4000001
   4122, 0.0166790728, -0.0493756421,    4.4000001
   4123,  0.116620295, -0.0496055074,    4.4000001
   4124,  0.216718107, -0.0496858284,    4.4000001
   4125,  0.316866845, -0.0490500629,    4.4000001
   4126, -0.602415204, -0.050688412,    4.4000001
   4127,  0.383211523, 0.0513742641,    4.4000001
   4128,  0.481736064, 0.0548581183,    4.4000001
   4129,  0.572274268, 0.0640596077,    4.4000001
   4130, -0.488438696, -0.0494441353,    4.4000001
   4131,  0.417243272, -0.0475444123,    4.4000001
   4132,  0.518074453, -0.0447730944,    4.4000001
   4133,  0.723617315, 0.00201012497,    4.4000001
   4134,  0.863923967, 0.00721039157,    4.4000001
   4135,  0.820430756, -0.0619703084,    4.4000001
   4136, -0.847279072, 0.00760738086,    4.4000001
   4137, -0.839612186, 0.0457400791,    4.4000001
   4138, -0.784825802, -0.0766975358,    4.4000001
   4139,  0.829983056, 0.0493127294,    4.4000001
   4140,  0.665597022, 0.0122219762,    4.4000001
   4141, -0.824999988,  0.129903808,          4.5
   4142, -0.879903793,  0.075000003,          4.5
   4143, -0.899999976,           0.,          4.5
   4144, -0.879903793, -0.075000003,          4.5
   4145, -0.824999988, -0.129903808,          4.5
   4146,        -0.75,  0.150000006,          4.5
   4147,        -0.75, -0.150000006,          4.5
   4148,         0.75,  0.150000006,          4.5
   4149,  0.807402492,  0.138581932,          4.5
   4150,  0.888581932, 0.0574025139,          4.5
   4151,  0.899999976,           0.,          4.5
   4152,  0.888581932, -0.0574025139,          4.5
   4153,  0.807402492, -0.138581932,          4.5
   4154,         0.75, -0.150000006,          4.5
   4155, -0.649999976,  0.150000006,          4.5
   4156, -0.550000012,  0.150000006,          4.5
   4157, -0.449999988,  0.150000006,          4.5
   4158, -0.349999994,  0.150000006,          4.5
   4159,        -0.25,  0.150000006,          4.5
   4160, -0.150000006,  0.150000006,          4.5
   4161, -0.0500000007,  0.150000006,          4.5
   4162, 0.0500000007,  0.150000006,          4.5
   4163,  0.150000006,  0.150000006,          4.5
   4164,         0.25,  0.150000006,          4.5
   4165,  0.349999994,  0.150000006,          4.5
   4166,  0.449999988,  0.150000006,          4.5
   4167,  0.550000012,  0.150000006,          4.5
   4168,  0.649999976,  0.150000006,          4.5
   4169,  0.856065989,  0.106066018,          4.5
   4170,  0.856065989, -0.106066018,          4.5
   4171, -0.649999976, -0.150000006,          4.5
   4172, -0.550000012, -0.150000006,          4.5
   4173, -0.449999988, -0.150000006,          4.5
   4174, -0.349999994, -0.150000006,          4.5
   4175,        -0.25, -0.150000006,          4.5
   4176, -0.150000006, -0.150000006,          4.5
   4177, -0.0500000007, -0.150000006,          4.5
   4178, 0.0500000007, -0.150000006,          4.5
   4179,  0.150000006, -0.150000006,          4.5
   4180,         0.25, -0.150000006,          4.5
   4181,  0.349999994, -0.150000006,          4.5
   4182,  0.449999988, -0.150000006,          4.5
   4183,  0.550000012, -0.150000006,          4.5
   4184,  0.649999976, -0.150000006,          4.5
   4185,  0.832925498, -0.0149648422,          4.5
   4186,  0.784100533, 0.0628456771,          4.5
   4187,  0.729406416, 0.0743573606,          4.5
   4188, -0.725353241, -0.0839191377,          4.5
   4189, -0.802840471, -0.0231915358,          4.5
   4190, -0.793433845,  0.055117581,          4.5
   4191,  0.777760208, -0.00484846393,          4.5
   4192, -0.718149543, 0.0575515591,          4.5
   4193,  0.779690742, -0.0679016784,          4.5
   4194,  0.858609617, 0.0387705304,          4.5
   4195,  0.720747471, -0.0668375567,          4.5
   4196,  0.652115285, 0.0776163116,          4.5
   4197, -0.713731468, -0.0208027884,          4.5
   4198, -0.621186674, 0.0516216531,          4.5
   4199,  0.621709466, -0.0393298343,          4.5
   4200, -0.656531751, -0.0975037366,          4.5
   4201,  -0.51899457, 0.0494230501,          4.5
   4202, -0.417587906, 0.0494504161,          4.5
   4203, -0.316909552, 0.0495560504,          4.5
   4204, -0.216774106, 0.0496912152,          4.5
   4205, -0.116735026, 0.0497531854,          4.5
   4206, -0.016591765, 0.0497845225,          4.5
   4207, 0.0833239034, 0.0493216105,          4.5
   4208,  0.183342233, 0.0492441319,          4.5
   4209,  0.283334643,  0.049797222,          4.5
   4210, -0.384422302, -0.0491131209,          4.5
   4211, -0.283576399, -0.0490349717,          4.5
   4212, -0.183385685, -0.0489701368,          4.5
   4213, -0.0833504274, -0.0489429086,          4.5
   4214, 0.0166790728, -0.0493756421,          4.5
   4215,  0.116620295, -0.0496055074,          4.5
   4216,  0.216718107, -0.0496858284,          4.5
   4217,  0.316866845, -0.0490500629,          4.5
   4218, -0.602415204, -0.050688412,          4.5
   4219,  0.383211523, 0.0513742641,          4.5
   4220,  0.481736064, 0.0548581183,          4.5
   4221,  0.572274268, 0.0640596077,          4.5
   4222, -0.488438696, -0.0494441353,          4.5
   4223,  0.417243272, -0.0475444123,          4.5
   4224,  0.518074453, -0.0447730944,          4.5
   4225,  0.723617315, 0.00201012497,          4.5
   4226,  0.863923967, 0.00721039157,          4.5
   4227,  0.820430756, -0.0619703084,          4.5
   4228, -0.847279072, 0.00760738086,          4.5
   4229, -0.839612186, 0.0457400791,          4.5
   4230, -0.784825802, -0.0766975358,          4.5
   4231,  0.829983056, 0.0493127294,          4.5
   4232,  0.665597022, 0.0122219762,          4.5
   4233, -0.824999988,  0.129903808,    4.5999999
   4234, -0.879903793,  0.075000003,    4.5999999
   4235, -0.899999976,           0.,    4.5999999
   4236, -0.879903793, -0.075000003,    4.5999999
   4237, -0.824999988, -0.129903808,    4.5999999
   4238,        -0.75,  0.150000006,    4.5999999
   4239,        -0.75, -0.150000006,    4.5999999
   4240,         0.75,  0.150000006,    4.5999999
   4241,  0.807402492,  0.138581932,    4.5999999
   4242,  0.888581932, 0.0574025139,    4.5999999
   4243,  0.899999976,           0.,    4.5999999
   4244,  0.888581932, -0.0574025139,    4.5999999
   4245,  0.807402492, -0.138581932,    4.5999999
   4246,         0.75, -0.150000006,    4.5999999
   4247, -0.649999976,  0.150000006,    4.5999999
   4248, -0.550000012,  0.150000006,    4.5999999
   4249, -0.449999988,  0.150000006,    4.5999999
   4250, -0.349999994,  0.150000006,    4.5999999
   4251,        -0.25,  0.150000006,    4.5999999
   4252, -0.150000006,  0.150000006,    4.5999999
   4253, -0.0500000007,  0.150000006,    4.5999999
   4254, 0.0500000007,  0.150000006,    4.5999999
   4255,  0.150000006,  0.150000006,    4.5999999
   4256,         0.25,  0.150000006,    4.5999999
   4257,  0.349999994,  0.150000006,    4.5999999
   4258,  0.449999988,  0.150000006,    4.5999999
   4259,  0.550000012,  0.150000006,    4.5999999
   4260,  0.649999976,  0.150000006,    4.5999999
   4261,  0.856065989,  0.106066018,    4.5999999
   4262,  0.856065989, -0.106066018,    4.5999999
   4263, -0.649999976, -0.150000006,    4.5999999
   4264, -0.550000012, -0.150000006,    4.5999999
   4265, -0.449999988, -0.150000006,    4.5999999
   4266, -0.349999994, -0.150000006,    4.5999999
   4267,        -0.25, -0.150000006,    4.5999999
   4268, -0.150000006, -0.150000006,    4.5999999
   4269, -0.0500000007, -0.150000006,    4.5999999
   4270, 0.0500000007, -0.150000006,    4.5999999
   4271,  0.150000006, -0.150000006,    4.5999999
   4272,         0.25, -0.150000006,    4.5999999
   4273,  0.349999994, -0.150000006,    4.5999999
   4274,  0.449999988, -0.150000006,    4.5999999
   4275,  0.550000012, -0.150000006,    4.5999999
   4276,  0.649999976, -0.150000006,    4.5999999
   4277,  0.832925498, -0.0149648422,    4.5999999
   4278,  0.784100533, 0.0628456771,    4.5999999
   4279,  0.729406416, 0.0743573606,    4.5999999
   4280, -0.725353241, -0.0839191377,    4.5999999
   4281, -0.802840471, -0.0231915358,    4.5999999
   4282, -0.793433845,  0.055117581,    4.5999999
   4283,  0.777760208, -0.00484846393,    4.5999999
   4284, -0.718149543, 0.0575515591,    4.5999999
   4285,  0.779690742, -0.0679016784,    4.5999999
   4286,  0.858609617, 0.0387705304,    4.5999999
   4287,  0.720747471, -0.0668375567,    4.5999999
   4288,  0.652115285, 0.0776163116,    4.5999999
   4289, -0.713731468, -0.0208027884,    4.5999999
   4290, -0.621186674, 0.0516216531,    4.5999999
   4291,  0.621709466, -0.0393298343,    4.5999999
   4292, -0.656531751, -0.0975037366,    4.5999999
   4293,  -0.51899457, 0.0494230501,    4.5999999
   4294, -0.417587906, 0.0494504161,    4.5999999
   4295, -0.316909552, 0.0495560504,    4.5999999
   4296, -0.216774106, 0.0496912152,    4.5999999
   4297, -0.116735026, 0.0497531854,    4.5999999
   4298, -0.016591765, 0.0497845225,    4.5999999
   4299, 0.0833239034, 0.0493216105,    4.5999999
   4300,  0.183342233, 0.0492441319,    4.5999999
   4301,  0.283334643,  0.049797222,    4.5999999
   4302, -0.384422302, -0.0491131209,    4.5999999
   4303, -0.283576399, -0.0490349717,    4.5999999
   4304, -0.183385685, -0.0489701368,    4.5999999
   4305, -0.0833504274, -0.0489429086,    4.5999999
   4306, 0.0166790728, -0.0493756421,    4.5999999
   4307,  0.116620295, -0.0496055074,    4.5999999
   4308,  0.216718107, -0.0496858284,    4.5999999
   4309,  0.316866845, -0.0490500629,    4.5999999
   4310, -0.602415204, -0.050688412,    4.5999999
   4311,  0.383211523, 0.0513742641,    4.5999999
   4312,  0.481736064, 0.0548581183,    4.5999999
   4313,  0.572274268, 0.0640596077,    4.5999999
   4314, -0.488438696, -0.0494441353,    4.5999999
   4315,  0.417243272, -0.0475444123,    4.5999999
   4316,  0.518074453, -0.0447730944,    4.5999999
   4317,  0.723617315, 0.00201012497,    4.5999999
   4318,  0.863923967, 0.00721039157,    4.5999999
   4319,  0.820430756, -0.0619703084,    4.5999999
   4320, -0.847279072, 0.00760738086,    4.5999999
   4321, -0.839612186, 0.0457400791,    4.5999999
   4322, -0.784825802, -0.0766975358,    4.5999999
   4323,  0.829983056, 0.0493127294,    4.5999999
   4324,  0.665597022, 0.0122219762,    4.5999999
   4325, -0.824999988,  0.129903808,   4.69999981
   4326, -0.879903793,  0.075000003,   4.69999981
   4327, -0.899999976,           0.,   4.69999981
   4328, -0.879903793, -0.075000003,   4.69999981
   4329, -0.824999988, -0.129903808,   4.69999981
   4330,        -0.75,  0.150000006,   4.69999981
   4331,        -0.75, -0.150000006,   4.69999981
   4332,         0.75,  0.150000006,   4.69999981
   4333,  0.807402492,  0.138581932,   4.69999981
   4334,  0.888581932, 0.0574025139,   4.69999981
   4335,  0.899999976,           0.,   4.69999981
   4336,  0.888581932, -0.0574025139,   4.69999981
   4337,  0.807402492, -0.138581932,   4.69999981
   4338,         0.75, -0.150000006,   4.69999981
   4339, -0.649999976,  0.150000006,   4.69999981
   4340, -0.550000012,  0.150000006,   4.69999981
   4341, -0.449999988,  0.150000006,   4.69999981
   4342, -0.349999994,  0.150000006,   4.69999981
   4343,        -0.25,  0.150000006,   4.69999981
   4344, -0.150000006,  0.150000006,   4.69999981
   4345, -0.0500000007,  0.150000006,   4.69999981
   4346, 0.0500000007,  0.150000006,   4.69999981
   4347,  0.150000006,  0.150000006,   4.69999981
   4348,         0.25,  0.150000006,   4.69999981
   4349,  0.349999994,  0.150000006,   4.69999981
   4350,  0.449999988,  0.150000006,   4.69999981
   4351,  0.550000012,  0.150000006,   4.69999981
   4352,  0.649999976,  0.150000006,   4.69999981
   4353,  0.856065989,  0.106066018,   4.69999981
   4354,  0.856065989, -0.106066018,   4.69999981
   4355, -0.649999976, -0.150000006,   4.69999981
   4356, -0.550000012, -0.150000006,   4.69999981
   4357, -0.449999988, -0.150000006,   4.69999981
   4358, -0.349999994, -0.150000006,   4.69999981
   4359,        -0.25, -0.150000006,   4.69999981
   4360, -0.150000006, -0.150000006,   4.69999981
   4361, -0.0500000007, -0.150000006,   4.69999981
   4362, 0.0500000007, -0.150000006,   4.69999981
   4363,  0.150000006, -0.150000006,   4.69999981
   4364,         0.25, -0.150000006,   4.69999981
   4365,  0.349999994, -0.150000006,   4.69999981
   4366,  0.449999988, -0.150000006,   4.69999981
   4367,  0.550000012, -0.150000006,   4.69999981
   4368,  0.649999976, -0.150000006,   4.69999981
   4369,  0.832925498, -0.0149648422,   4.69999981
   4370,  0.784100533, 0.0628456771,   4.69999981
   4371,  0.729406416, 0.0743573606,   4.69999981
   4372, -0.725353241, -0.0839191377,   4.69999981
   4373, -0.802840471, -0.0231915358,   4.69999981
   4374, -0.793433845,  0.055117581,   4.69999981
   4375,  0.777760208, -0.00484846393,   4.69999981
   4376, -0.718149543, 0.0575515591,   4.69999981
   4377,  0.779690742, -0.0679016784,   4.69999981
   4378,  0.858609617, 0.0387705304,   4.69999981
   4379,  0.720747471, -0.0668375567,   4.69999981
   4380,  0.652115285, 0.0776163116,   4.69999981
   4381, -0.713731468, -0.0208027884,   4.69999981
   4382, -0.621186674, 0.0516216531,   4.69999981
   4383,  0.621709466, -0.0393298343,   4.69999981
   4384, -0.656531751, -0.0975037366,   4.69999981
   4385,  -0.51899457, 0.0494230501,   4.69999981
   4386, -0.417587906, 0.0494504161,   4.69999981
   4387, -0.316909552, 0.0495560504,   4.69999981
   4388, -0.216774106, 0.0496912152,   4.69999981
   4389, -0.116735026, 0.0497531854,   4.69999981
   4390, -0.016591765, 0.0497845225,   4.69999981
   4391, 0.0833239034, 0.0493216105,   4.69999981
   4392,  0.183342233, 0.0492441319,   4.69999981
   4393,  0.283334643,  0.049797222,   4.69999981
   4394, -0.384422302, -0.0491131209,   4.69999981
   4395, -0.283576399, -0.0490349717,   4.69999981
   4396, -0.183385685, -0.0489701368,   4.69999981
   4397, -0.0833504274, -0.0489429086,   4.69999981
   4398, 0.0166790728, -0.0493756421,   4.69999981
   4399,  0.116620295, -0.0496055074,   4.69999981
   4400,  0.216718107, -0.0496858284,   4.69999981
   4401,  0.316866845, -0.0490500629,   4.69999981
   4402, -0.602415204, -0.050688412,   4.69999981
   4403,  0.383211523, 0.0513742641,   4.69999981
   4404,  0.481736064, 0.0548581183,   4.69999981
   4405,  0.572274268, 0.0640596077,   4.69999981
   4406, -0.488438696, -0.0494441353,   4.69999981
   4407,  0.417243272, -0.0475444123,   4.69999981
   4408,  0.518074453, -0.0447730944,   4.69999981
   4409,  0.723617315, 0.00201012497,   4.69999981
   4410,  0.863923967, 0.00721039157,   4.69999981
   4411,  0.820430756, -0.0619703084,   4.69999981
   4412, -0.847279072, 0.00760738086,   4.69999981
   4413, -0.839612186, 0.0457400791,   4.69999981
   4414, -0.784825802, -0.0766975358,   4.69999981
   4415,  0.829983056, 0.0493127294,   4.69999981
   4416,  0.665597022, 0.0122219762,   4.69999981
   4417, -0.824999988,  0.129903808,   4.80000019
   4418, -0.879903793,  0.075000003,   4.80000019
   4419, -0.899999976,           0.,   4.80000019
   4420, -0.879903793, -0.075000003,   4.80000019
   4421, -0.824999988, -0.129903808,   4.80000019
   4422,        -0.75,  0.150000006,   4.80000019
   4423,        -0.75, -0.150000006,   4.80000019
   4424,         0.75,  0.150000006,   4.80000019
   4425,  0.807402492,  0.138581932,   4.80000019
   4426,  0.888581932, 0.0574025139,   4.80000019
   4427,  0.899999976,           0.,   4.80000019
   4428,  0.888581932, -0.0574025139,   4.80000019
   4429,  0.807402492, -0.138581932,   4.80000019
   4430,         0.75, -0.150000006,   4.80000019
   4431, -0.649999976,  0.150000006,   4.80000019
   4432, -0.550000012,  0.150000006,   4.80000019
   4433, -0.449999988,  0.150000006,   4.80000019
   4434, -0.349999994,  0.150000006,   4.80000019
   4435,        -0.25,  0.150000006,   4.80000019
   4436, -0.150000006,  0.150000006,   4.80000019
   4437, -0.0500000007,  0.150000006,   4.80000019
   4438, 0.0500000007,  0.150000006,   4.80000019
   4439,  0.150000006,  0.150000006,   4.80000019
   4440,         0.25,  0.150000006,   4.80000019
   4441,  0.349999994,  0.150000006,   4.80000019
   4442,  0.449999988,  0.150000006,   4.80000019
   4443,  0.550000012,  0.150000006,   4.80000019
   4444,  0.649999976,  0.150000006,   4.80000019
   4445,  0.856065989,  0.106066018,   4.80000019
   4446,  0.856065989, -0.106066018,   4.80000019
   4447, -0.649999976, -0.150000006,   4.80000019
   4448, -0.550000012, -0.150000006,   4.80000019
   4449, -0.449999988, -0.150000006,   4.80000019
   4450, -0.349999994, -0.150000006,   4.80000019
   4451,        -0.25, -0.150000006,   4.80000019
   4452, -0.150000006, -0.150000006,   4.80000019
   4453, -0.0500000007, -0.150000006,   4.80000019
   4454, 0.0500000007, -0.150000006,   4.80000019
   4455,  0.150000006, -0.150000006,   4.80000019
   4456,         0.25, -0.150000006,   4.80000019
   4457,  0.349999994, -0.150000006,   4.80000019
   4458,  0.449999988, -0.150000006,   4.80000019
   4459,  0.550000012, -0.150000006,   4.80000019
   4460,  0.649999976, -0.150000006,   4.80000019
   4461,  0.832925498, -0.0149648422,   4.80000019
   4462,  0.784100533, 0.0628456771,   4.80000019
   4463,  0.729406416, 0.0743573606,   4.80000019
   4464, -0.725353241, -0.0839191377,   4.80000019
   4465, -0.802840471, -0.0231915358,   4.80000019
   4466, -0.793433845,  0.055117581,   4.80000019
   4467,  0.777760208, -0.00484846393,   4.80000019
   4468, -0.718149543, 0.0575515591,   4.80000019
   4469,  0.779690742, -0.0679016784,   4.80000019
   4470,  0.858609617, 0.0387705304,   4.80000019
   4471,  0.720747471, -0.0668375567,   4.80000019
   4472,  0.652115285, 0.0776163116,   4.80000019
   4473, -0.713731468, -0.0208027884,   4.80000019
   4474, -0.621186674, 0.0516216531,   4.80000019
   4475,  0.621709466, -0.0393298343,   4.80000019
   4476, -0.656531751, -0.0975037366,   4.80000019
   4477,  -0.51899457, 0.0494230501,   4.80000019
   4478, -0.417587906, 0.0494504161,   4.80000019
   4479, -0.316909552, 0.0495560504,   4.80000019
   4480, -0.216774106, 0.0496912152,   4.80000019
   4481, -0.116735026, 0.0497531854,   4.80000019
   4482, -0.016591765, 0.0497845225,   4.80000019
   4483, 0.0833239034, 0.0493216105,   4.80000019
   4484,  0.183342233, 0.0492441319,   4.80000019
   4485,  0.283334643,  0.049797222,   4.80000019
   4486, -0.384422302, -0.0491131209,   4.80000019
   4487, -0.283576399, -0.0490349717,   4.80000019
   4488, -0.183385685, -0.0489701368,   4.80000019
   4489, -0.0833504274, -0.0489429086,   4.80000019
   4490, 0.0166790728, -0.0493756421,   4.80000019
   4491,  0.116620295, -0.0496055074,   4.80000019
   4492,  0.216718107, -0.0496858284,   4.80000019
   4493,  0.316866845, -0.0490500629,   4.80000019
   4494, -0.602415204, -0.050688412,   4.80000019
   4495,  0.383211523, 0.0513742641,   4.80000019
   4496,  0.481736064, 0.0548581183,   4.80000019
   4497,  0.572274268, 0.0640596077,   4.80000019
   4498, -0.488438696, -0.0494441353,   4.80000019
   4499,  0.417243272, -0.0475444123,   4.80000019
   4500,  0.518074453, -0.0447730944,   4.80000019
   4501,  0.723617315, 0.00201012497,   4.80000019
   4502,  0.863923967, 0.00721039157,   4.80000019
   4503,  0.820430756, -0.0619703084,   4.80000019
   4504, -0.847279072, 0.00760738086,   4.80000019
   4505, -0.839612186, 0.0457400791,   4.80000019
   4506, -0.784825802, -0.0766975358,   4.80000019
   4507,  0.829983056, 0.0493127294,   4.80000019
   4508,  0.665597022, 0.0122219762,   4.80000019
   4509, -0.824999988,  0.129903808,    4.9000001
   4510, -0.879903793,  0.075000003,    4.9000001
   4511, -0.899999976,           0.,    4.9000001
   4512, -0.879903793, -0.075000003,    4.9000001
   4513, -0.824999988, -0.129903808,    4.9000001
   4514,        -0.75,  0.150000006,    4.9000001
   4515,        -0.75, -0.150000006,    4.9000001
   4516,         0.75,  0.150000006,    4.9000001
   4517,  0.807402492,  0.138581932,    4.9000001
   4518,  0.888581932, 0.0574025139,    4.9000001
   4519,  0.899999976,           0.,    4.9000001
   4520,  0.888581932, -0.0574025139,    4.9000001
   4521,  0.807402492, -0.138581932,    4.9000001
   4522,         0.75, -0.150000006,    4.9000001
   4523, -0.649999976,  0.150000006,    4.9000001
   4524, -0.550000012,  0.150000006,    4.9000001
   4525, -0.449999988,  0.150000006,    4.9000001
   4526, -0.349999994,  0.150000006,    4.9000001
   4527,        -0.25,  0.150000006,    4.9000001
   4528, -0.150000006,  0.150000006,    4.9000001
   4529, -0.0500000007,  0.150000006,    4.9000001
   4530, 0.0500000007,  0.150000006,    4.9000001
   4531,  0.150000006,  0.150000006,    4.9000001
   4532,         0.25,  0.150000006,    4.9000001
   4533,  0.349999994,  0.150000006,    4.9000001
   4534,  0.449999988,  0.150000006,    4.9000001
   4535,  0.550000012,  0.150000006,    4.9000001
   4536,  0.649999976,  0.150000006,    4.9000001
   4537,  0.856065989,  0.106066018,    4.9000001
   4538,  0.856065989, -0.106066018,    4.9000001
   4539, -0.649999976, -0.150000006,    4.9000001
   4540, -0.550000012, -0.150000006,    4.9000001
   4541, -0.449999988, -0.150000006,    4.9000001
   4542, -0.349999994, -0.150000006,    4.9000001
   4543,        -0.25, -0.150000006,    4.9000001
   4544, -0.150000006, -0.150000006,    4.9000001
   4545, -0.0500000007, -0.150000006,    4.9000001
   4546, 0.0500000007, -0.150000006,    4.9000001
   4547,  0.150000006, -0.150000006,    4.9000001
   4548,         0.25, -0.150000006,    4.9000001
   4549,  0.349999994, -0.150000006,    4.9000001
   4550,  0.449999988, -0.150000006,    4.9000001
   4551,  0.550000012, -0.150000006,    4.9000001
   4552,  0.649999976, -0.150000006,    4.9000001
   4553,  0.832925498, -0.0149648422,    4.9000001
   4554,  0.784100533, 0.0628456771,    4.9000001
   4555,  0.729406416, 0.0743573606,    4.9000001
   4556, -0.725353241, -0.0839191377,    4.9000001
   4557, -0.802840471, -0.0231915358,    4.9000001
   4558, -0.793433845,  0.055117581,    4.9000001
   4559,  0.777760208, -0.00484846393,    4.9000001
   4560, -0.718149543, 0.0575515591,    4.9000001
   4561,  0.779690742, -0.0679016784,    4.9000001
   4562,  0.858609617, 0.0387705304,    4.9000001
   4563,  0.720747471, -0.0668375567,    4.9000001
   4564,  0.652115285, 0.0776163116,    4.9000001
   4565, -0.713731468, -0.0208027884,    4.9000001
   4566, -0.621186674, 0.0516216531,    4.9000001
   4567,  0.621709466, -0.0393298343,    4.9000001
   4568, -0.656531751, -0.0975037366,    4.9000001
   4569,  -0.51899457, 0.0494230501,    4.9000001
   4570, -0.417587906, 0.0494504161,    4.9000001
   4571, -0.316909552, 0.0495560504,    4.9000001
   4572, -0.216774106, 0.0496912152,    4.9000001
   4573, -0.116735026, 0.0497531854,    4.9000001
   4574, -0.016591765, 0.0497845225,    4.9000001
   4575, 0.0833239034, 0.0493216105,    4.9000001
   4576,  0.183342233, 0.0492441319,    4.9000001
   4577,  0.283334643,  0.049797222,    4.9000001
   4578, -0.384422302, -0.0491131209,    4.9000001
   4579, -0.283576399, -0.0490349717,    4.9000001
   4580, -0.183385685, -0.0489701368,    4.9000001
   4581, -0.0833504274, -0.0489429086,    4.9000001
   4582, 0.0166790728, -0.0493756421,    4.9000001
   4583,  0.116620295, -0.0496055074,    4.9000001
   4584,  0.216718107, -0.0496858284,    4.9000001
   4585,  0.316866845, -0.0490500629,    4.9000001
   4586, -0.602415204, -0.050688412,    4.9000001
   4587,  0.383211523, 0.0513742641,    4.9000001
   4588,  0.481736064, 0.0548581183,    4.9000001
   4589,  0.572274268, 0.0640596077,    4.9000001
   4590, -0.488438696, -0.0494441353,    4.9000001
   4591,  0.417243272, -0.0475444123,    4.9000001
   4592,  0.518074453, -0.0447730944,    4.9000001
   4593,  0.723617315, 0.00201012497,    4.9000001
   4594,  0.863923967, 0.00721039157,    4.9000001
   4595,  0.820430756, -0.0619703084,    4.9000001
   4596, -0.847279072, 0.00760738086,    4.9000001
   4597, -0.839612186, 0.0457400791,    4.9000001
   4598, -0.784825802, -0.0766975358,    4.9000001
   4599,  0.829983056, 0.0493127294,    4.9000001
   4600,  0.665597022, 0.0122219762,    4.9000001
   4601, -0.824999988,  0.129903808,           5.
   4602, -0.879903793,  0.075000003,           5.
   4603, -0.899999976,           0.,           5.
   4604, -0.879903793, -0.075000003,           5.
   4605, -0.824999988, -0.129903808,           5.
   4606,        -0.75,  0.150000006,           5.
   4607,        -0.75, -0.150000006,           5.
   4608,         0.75,  0.150000006,           5.
   4609,  0.807402492,  0.138581932,           5.
   4610,  0.888581932, 0.0574025139,           5.
   4611,  0.899999976,           0.,           5.
   4612,  0.888581932, -0.0574025139,           5.
   4613,  0.807402492, -0.138581932,           5.
   4614,         0.75, -0.150000006,           5.
   4615, -0.649999976,  0.150000006,           5.
   4616, -0.550000012,  0.150000006,           5.
   4617, -0.449999988,  0.150000006,           5.
   4618, -0.349999994,  0.150000006,           5.
   4619,        -0.25,  0.150000006,           5.
   4620, -0.150000006,  0.150000006,           5.
   4621, -0.0500000007,  0.150000006,           5.
   4622, 0.0500000007,  0.150000006,           5.
   4623,  0.150000006,  0.150000006,           5.
   4624,         0.25,  0.150000006,           5.
   4625,  0.349999994,  0.150000006,           5.
   4626,  0.449999988,  0.150000006,           5.
   4627,  0.550000012,  0.150000006,           5.
   4628,  0.649999976,  0.150000006,           5.
   4629,  0.856065989,  0.106066018,           5.
   4630,  0.856065989, -0.106066018,           5.
   4631, -0.649999976, -0.150000006,           5.
   4632, -0.550000012, -0.150000006,           5.
   4633, -0.449999988, -0.150000006,           5.
   4634, -0.349999994, -0.150000006,           5.
   4635,        -0.25, -0.150000006,           5.
   4636, -0.150000006, -0.150000006,           5.
   4637, -0.0500000007, -0.150000006,           5.
   4638, 0.0500000007, -0.150000006,           5.
   4639,  0.150000006, -0.150000006,           5.
   4640,         0.25, -0.150000006,           5.
   4641,  0.349999994, -0.150000006,           5.
   4642,  0.449999988, -0.150000006,           5.
   4643,  0.550000012, -0.150000006,           5.
   4644,  0.649999976, -0.150000006,           5.
   4645,  0.832925498, -0.0149648422,           5.
   4646,  0.784100533, 0.0628456771,           5.
   4647,  0.729406416, 0.0743573606,           5.
   4648, -0.725353241, -0.0839191377,           5.
   4649, -0.802840471, -0.0231915358,           5.
   4650, -0.793433845,  0.055117581,           5.
   4651,  0.777760208, -0.00484846393,           5.
   4652, -0.718149543, 0.0575515591,           5.
   4653,  0.779690742, -0.0679016784,           5.
   4654,  0.858609617, 0.0387705304,           5.
   4655,  0.720747471, -0.0668375567,           5.
   4656,  0.652115285, 0.0776163116,           5.
   4657, -0.713731468, -0.0208027884,           5.
   4658, -0.621186674, 0.0516216531,           5.
   4659,  0.621709466, -0.0393298343,           5.
   4660, -0.656531751, -0.0975037366,           5.
   4661,  -0.51899457, 0.0494230501,           5.
   4662, -0.417587906, 0.0494504161,           5.
   4663, -0.316909552, 0.0495560504,           5.
   4664, -0.216774106, 0.0496912152,           5.
   4665, -0.116735026, 0.0497531854,           5.
   4666, -0.016591765, 0.0497845225,           5.
   4667, 0.0833239034, 0.0493216105,           5.
   4668,  0.183342233, 0.0492441319,           5.
   4669,  0.283334643,  0.049797222,           5.
   4670, -0.384422302, -0.0491131209,           5.
   4671, -0.283576399, -0.0490349717,           5.
   4672, -0.183385685, -0.0489701368,           5.
   4673, -0.0833504274, -0.0489429086,           5.
   4674, 0.0166790728, -0.0493756421,           5.
   4675,  0.116620295, -0.0496055074,           5.
   4676,  0.216718107, -0.0496858284,           5.
   4677,  0.316866845, -0.0490500629,           5.
   4678, -0.602415204, -0.050688412,           5.
   4679,  0.383211523, 0.0513742641,           5.
   4680,  0.481736064, 0.0548581183,           5.
   4681,  0.572274268, 0.0640596077,           5.
   4682, -0.488438696, -0.0494441353,           5.
   4683,  0.417243272, -0.0475444123,           5.
   4684,  0.518074453, -0.0447730944,           5.
   4685,  0.723617315, 0.00201012497,           5.
   4686,  0.863923967, 0.00721039157,           5.
   4687,  0.820430756, -0.0619703084,           5.
   4688, -0.847279072, 0.00760738086,           5.
   4689, -0.839612186, 0.0457400791,           5.
   4690, -0.784825802, -0.0766975358,           5.
   4691,  0.829983056, 0.0493127294,           5.
   4692,  0.665597022, 0.0122219762,           5.
*Element, type=DC3D8
   1,   49,    4,    5,   90,  141,   96,   97,  182
   2,    2,    3,   88,   89,   94,   95,  180,  181
   3,    3,    4,   49,   88,   95,   96,  141,  180
   4,   52,   50,   49,   57,  144,  142,  141,  149
   5,    6,   52,   58,   15,   98,  144,  150,  107
   6,    8,   47,   46,    9,  100,  139,  138,  101
   7,   86,   11,   10,   54,  178,  103,  102,  146
   8,   13,   30,   87,   53,  105,  122,  179,  145
   9,   15,   58,   61,   16,  107,  150,  153,  108
  10,   16,   61,   62,   17,  108,  153,  154,  109
  11,   17,   62,   63,   18,  109,  154,  155,  110
  12,   18,   63,   64,   19,  110,  155,  156,  111
  13,   19,   64,   65,   20,  111,  156,  157,  112
  14,   20,   65,   66,   21,  112,  157,  158,  113
  15,   21,   66,   67,   22,  113,  158,  159,  114
  16,   22,   67,   68,   23,  114,  159,  160,  115
  17,   23,   68,   69,   24,  115,  160,  161,  116
  18,   24,   69,   79,   25,  116,  161,  171,  117
  19,   25,   79,   80,   26,  117,  171,  172,  118
  20,   26,   80,   81,   27,  118,  172,  173,  119
  21,   46,   47,   85,   51,  138,  139,  177,  143
  22,   45,   12,   11,   86,  137,  104,  103,  178
  23,   55,   14,   13,   53,  147,  106,  105,  145
  24,   57,   48,   60,   78,  149,  140,  152,  170
  25,   58,   78,   82,   61,  150,  170,  174,  153
  26,   61,   82,   70,   62,  153,  174,  162,  154
  27,   62,   70,   71,   63,  154,  162,  163,  155
  28,   63,   71,   72,   64,  155,  163,  164,  156
  29,   64,   72,   73,   65,  156,  164,  165,  157
  30,   65,   73,   74,   66,  157,  165,  166,  158
  31,   66,   74,   75,   67,  158,  166,  167,  159
  32,   67,   75,   76,   68,  159,  167,  168,  160
  33,   68,   76,   77,   69,  160,  168,  169,  161
  34,   42,   83,   77,   41,  134,  175,  169,  133
  35,   79,   83,   84,   80,  171,  175,  176,  172
  36,   56,   81,   59,   92,  148,  173,  151,  184
  37,   10,   29,   91,   54,  102,  121,  183,  146
  38,   28,   56,   47,    8,  120,  148,  139,  100
  39,   50,   89,   88,   49,  142,  181,  180,  141
  40,   90,    5,    7,   48,  182,   97,   99,  140
  41,   52,    6,    1,   50,  144,   98,   93,  142
  42,   87,   45,   51,   53,  179,  137,  143,  145
  43,   51,   85,   55,   53,  143,  177,  147,  145
  44,   78,   58,   52,   57,  170,  150,  144,  149
  45,   59,   44,   14,   55,  151,  136,  106,  147
  46,   86,   54,   91,   45,  178,  146,  183,  137
  47,   84,   43,   44,   59,  176,  135,  136,  151
  48,   56,   92,   85,   47,  148,  184,  177,  139
  49,   31,   32,   78,   60,  123,  124,  170,  152
  50,   43,   84,   83,   42,  135,  176,  175,  134
  51,   80,   84,   59,   81,  172,  176,  151,  173
  52,   60,   48,    7,   31,  152,  140,   99,  123
  53,   33,   82,   78,   32,  125,  174,  170,  124
  54,   35,   71,   70,   34,  127,  163,  162,  126
  55,   36,   72,   71,   35,  128,  164,  163,  127
  56,   37,   73,   72,   36,  129,  165,  164,  128
  57,   38,   74,   73,   37,  130,  166,  165,  129
  58,   39,   75,   74,   38,  131,  167,  166,  130
  59,   40,   76,   75,   39,  132,  168,  167,  131
  60,   41,   77,   76,   40,  133,  169,  168,  132
  61,   82,   33,   34,   70,  174,  125,  126,  162
  62,   83,   79,   69,   77,  175,  171,  161,  169
  63,   56,   28,   27,   81,  148,  120,  119,  173
  64,   55,   85,   92,   59,  147,  177,  184,  151
  65,   29,    9,   46,   91,  121,  101,  138,  183
  66,   30,   12,   45,   87,  122,  104,  137,  179
  67,    2,   89,   50,    1,   94,  181,  142,   93
  68,   90,   48,   57,   49,  182,  140,  149,  141
  69,   46,   51,   45,   91,  138,  143,  137,  183
  70,  141,   96,   97,  182,  233,  188,  189,  274
  71,   94,   95,  180,  181,  186,  187,  272,  273
  72,   95,   96,  141,  180,  187,  188,  233,  272
  73,  144,  142,  141,  149,  236,  234,  233,  241
  74,   98,  144,  150,  107,  190,  236,  242,  199
  75,  100,  139,  138,  101,  192,  231,  230,  193
  76,  178,  103,  102,  146,  270,  195,  194,  238
  77,  105,  122,  179,  145,  197,  214,  271,  237
  78,  107,  150,  153,  108,  199,  242,  245,  200
  79,  108,  153,  154,  109,  200,  245,  246,  201
  80,  109,  154,  155,  110,  201,  246,  247,  202
  81,  110,  155,  156,  111,  202,  247,  248,  203
  82,  111,  156,  157,  112,  203,  248,  249,  204
  83,  112,  157,  158,  113,  204,  249,  250,  205
  84,  113,  158,  159,  114,  205,  250,  251,  206
  85,  114,  159,  160,  115,  206,  251,  252,  207
  86,  115,  160,  161,  116,  207,  252,  253,  208
  87,  116,  161,  171,  117,  208,  253,  263,  209
  88,  117,  171,  172,  118,  209,  263,  264,  210
  89,  118,  172,  173,  119,  210,  264,  265,  211
  90,  138,  139,  177,  143,  230,  231,  269,  235
  91,  137,  104,  103,  178,  229,  196,  195,  270
  92,  147,  106,  105,  145,  239,  198,  197,  237
  93,  149,  140,  152,  170,  241,  232,  244,  262
  94,  150,  170,  174,  153,  242,  262,  266,  245
  95,  153,  174,  162,  154,  245,  266,  254,  246
  96,  154,  162,  163,  155,  246,  254,  255,  247
  97,  155,  163,  164,  156,  247,  255,  256,  248
  98,  156,  164,  165,  157,  248,  256,  257,  249
  99,  157,  165,  166,  158,  249,  257,  258,  250
 100,  158,  166,  167,  159,  250,  258,  259,  251
 101,  159,  167,  168,  160,  251,  259,  260,  252
 102,  160,  168,  169,  161,  252,  260,  261,  253
 103,  134,  175,  169,  133,  226,  267,  261,  225
 104,  171,  175,  176,  172,  263,  267,  268,  264
 105,  148,  173,  151,  184,  240,  265,  243,  276
 106,  102,  121,  183,  146,  194,  213,  275,  238
 107,  120,  148,  139,  100,  212,  240,  231,  192
 108,  142,  181,  180,  141,  234,  273,  272,  233
 109,  182,   97,   99,  140,  274,  189,  191,  232
 110,  144,   98,   93,  142,  236,  190,  185,  234
 111,  179,  137,  143,  145,  271,  229,  235,  237
 112,  143,  177,  147,  145,  235,  269,  239,  237
 113,  170,  150,  144,  149,  262,  242,  236,  241
 114,  151,  136,  106,  147,  243,  228,  198,  239
 115,  178,  146,  183,  137,  270,  238,  275,  229
 116,  176,  135,  136,  151,  268,  227,  228,  243
 117,  148,  184,  177,  139,  240,  276,  269,  231
 118,  123,  124,  170,  152,  215,  216,  262,  244
 119,  135,  176,  175,  134,  227,  268,  267,  226
 120,  172,  176,  151,  173,  264,  268,  243,  265
 121,  152,  140,   99,  123,  244,  232,  191,  215
 122,  125,  174,  170,  124,  217,  266,  262,  216
 123,  127,  163,  162,  126,  219,  255,  254,  218
 124,  128,  164,  163,  127,  220,  256,  255,  219
 125,  129,  165,  164,  128,  221,  257,  256,  220
 126,  130,  166,  165,  129,  222,  258,  257,  221
 127,  131,  167,  166,  130,  223,  259,  258,  222
 128,  132,  168,  167,  131,  224,  260,  259,  223
 129,  133,  169,  168,  132,  225,  261,  260,  224
 130,  174,  125,  126,  162,  266,  217,  218,  254
 131,  175,  171,  161,  169,  267,  263,  253,  261
 132,  148,  120,  119,  173,  240,  212,  211,  265
 133,  147,  177,  184,  151,  239,  269,  276,  243
 134,  121,  101,  138,  183,  213,  193,  230,  275
 135,  122,  104,  137,  179,  214,  196,  229,  271
 136,   94,  181,  142,   93,  186,  273,  234,  185
 137,  182,  140,  149,  141,  274,  232,  241,  233
 138,  138,  143,  137,  183,  230,  235,  229,  275
 139,  233,  188,  189,  274,  325,  280,  281,  366
 140,  186,  187,  272,  273,  278,  279,  364,  365
 141,  187,  188,  233,  272,  279,  280,  325,  364
 142,  236,  234,  233,  241,  328,  326,  325,  333
 143,  190,  236,  242,  199,  282,  328,  334,  291
 144,  192,  231,  230,  193,  284,  323,  322,  285
 145,  270,  195,  194,  238,  362,  287,  286,  330
 146,  197,  214,  271,  237,  289,  306,  363,  329
 147,  199,  242,  245,  200,  291,  334,  337,  292
 148,  200,  245,  246,  201,  292,  337,  338,  293
 149,  201,  246,  247,  202,  293,  338,  339,  294
 150,  202,  247,  248,  203,  294,  339,  340,  295
 151,  203,  248,  249,  204,  295,  340,  341,  296
 152,  204,  249,  250,  205,  296,  341,  342,  297
 153,  205,  250,  251,  206,  297,  342,  343,  298
 154,  206,  251,  252,  207,  298,  343,  344,  299
 155,  207,  252,  253,  208,  299,  344,  345,  300
 156,  208,  253,  263,  209,  300,  345,  355,  301
 157,  209,  263,  264,  210,  301,  355,  356,  302
 158,  210,  264,  265,  211,  302,  356,  357,  303
 159,  230,  231,  269,  235,  322,  323,  361,  327
 160,  229,  196,  195,  270,  321,  288,  287,  362
 161,  239,  198,  197,  237,  331,  290,  289,  329
 162,  241,  232,  244,  262,  333,  324,  336,  354
 163,  242,  262,  266,  245,  334,  354,  358,  337
 164,  245,  266,  254,  246,  337,  358,  346,  338
 165,  246,  254,  255,  247,  338,  346,  347,  339
 166,  247,  255,  256,  248,  339,  347,  348,  340
 167,  248,  256,  257,  249,  340,  348,  349,  341
 168,  249,  257,  258,  250,  341,  349,  350,  342
 169,  250,  258,  259,  251,  342,  350,  351,  343
 170,  251,  259,  260,  252,  343,  351,  352,  344
 171,  252,  260,  261,  253,  344,  352,  353,  345
 172,  226,  267,  261,  225,  318,  359,  353,  317
 173,  263,  267,  268,  264,  355,  359,  360,  356
 174,  240,  265,  243,  276,  332,  357,  335,  368
 175,  194,  213,  275,  238,  286,  305,  367,  330
 176,  212,  240,  231,  192,  304,  332,  323,  284
 177,  234,  273,  272,  233,  326,  365,  364,  325
 178,  274,  189,  191,  232,  366,  281,  283,  324
 179,  236,  190,  185,  234,  328,  282,  277,  326
 180,  271,  229,  235,  237,  363,  321,  327,  329
 181,  235,  269,  239,  237,  327,  361,  331,  329
 182,  262,  242,  236,  241,  354,  334,  328,  333
 183,  243,  228,  198,  239,  335,  320,  290,  331
 184,  270,  238,  275,  229,  362,  330,  367,  321
 185,  268,  227,  228,  243,  360,  319,  320,  335
 186,  240,  276,  269,  231,  332,  368,  361,  323
 187,  215,  216,  262,  244,  307,  308,  354,  336
 188,  227,  268,  267,  226,  319,  360,  359,  318
 189,  264,  268,  243,  265,  356,  360,  335,  357
 190,  244,  232,  191,  215,  336,  324,  283,  307
 191,  217,  266,  262,  216,  309,  358,  354,  308
 192,  219,  255,  254,  218,  311,  347,  346,  310
 193,  220,  256,  255,  219,  312,  348,  347,  311
 194,  221,  257,  256,  220,  313,  349,  348,  312
 195,  222,  258,  257,  221,  314,  350,  349,  313
 196,  223,  259,  258,  222,  315,  351,  350,  314
 197,  224,  260,  259,  223,  316,  352,  351,  315
 198,  225,  261,  260,  224,  317,  353,  352,  316
 199,  266,  217,  218,  254,  358,  309,  310,  346
 200,  267,  263,  253,  261,  359,  355,  345,  353
 201,  240,  212,  211,  265,  332,  304,  303,  357
 202,  239,  269,  276,  243,  331,  361,  368,  335
 203,  213,  193,  230,  275,  305,  285,  322,  367
 204,  214,  196,  229,  271,  306,  288,  321,  363
 205,  186,  273,  234,  185,  278,  365,  326,  277
 206,  274,  232,  241,  233,  366,  324,  333,  325
 207,  230,  235,  229,  275,  322,  327,  321,  367
 208,  325,  280,  281,  366,  417,  372,  373,  458
 209,  278,  279,  364,  365,  370,  371,  456,  457
 210,  279,  280,  325,  364,  371,  372,  417,  456
 211,  328,  326,  325,  333,  420,  418,  417,  425
 212,  282,  328,  334,  291,  374,  420,  426,  383
 213,  284,  323,  322,  285,  376,  415,  414,  377
 214,  362,  287,  286,  330,  454,  379,  378,  422
 215,  289,  306,  363,  329,  381,  398,  455,  421
 216,  291,  334,  337,  292,  383,  426,  429,  384
 217,  292,  337,  338,  293,  384,  429,  430,  385
 218,  293,  338,  339,  294,  385,  430,  431,  386
 219,  294,  339,  340,  295,  386,  431,  432,  387
 220,  295,  340,  341,  296,  387,  432,  433,  388
 221,  296,  341,  342,  297,  388,  433,  434,  389
 222,  297,  342,  343,  298,  389,  434,  435,  390
 223,  298,  343,  344,  299,  390,  435,  436,  391
 224,  299,  344,  345,  300,  391,  436,  437,  392
 225,  300,  345,  355,  301,  392,  437,  447,  393
 226,  301,  355,  356,  302,  393,  447,  448,  394
 227,  302,  356,  357,  303,  394,  448,  449,  395
 228,  322,  323,  361,  327,  414,  415,  453,  419
 229,  321,  288,  287,  362,  413,  380,  379,  454
 230,  331,  290,  289,  329,  423,  382,  381,  421
 231,  333,  324,  336,  354,  425,  416,  428,  446
 232,  334,  354,  358,  337,  426,  446,  450,  429
 233,  337,  358,  346,  338,  429,  450,  438,  430
 234,  338,  346,  347,  339,  430,  438,  439,  431
 235,  339,  347,  348,  340,  431,  439,  440,  432
 236,  340,  348,  349,  341,  432,  440,  441,  433
 237,  341,  349,  350,  342,  433,  441,  442,  434
 238,  342,  350,  351,  343,  434,  442,  443,  435
 239,  343,  351,  352,  344,  435,  443,  444,  436
 240,  344,  352,  353,  345,  436,  444,  445,  437
 241,  318,  359,  353,  317,  410,  451,  445,  409
 242,  355,  359,  360,  356,  447,  451,  452,  448
 243,  332,  357,  335,  368,  424,  449,  427,  460
 244,  286,  305,  367,  330,  378,  397,  459,  422
 245,  304,  332,  323,  284,  396,  424,  415,  376
 246,  326,  365,  364,  325,  418,  457,  456,  417
 247,  366,  281,  283,  324,  458,  373,  375,  416
 248,  328,  282,  277,  326,  420,  374,  369,  418
 249,  363,  321,  327,  329,  455,  413,  419,  421
 250,  327,  361,  331,  329,  419,  453,  423,  421
 251,  354,  334,  328,  333,  446,  426,  420,  425
 252,  335,  320,  290,  331,  427,  412,  382,  423
 253,  362,  330,  367,  321,  454,  422,  459,  413
 254,  360,  319,  320,  335,  452,  411,  412,  427
 255,  332,  368,  361,  323,  424,  460,  453,  415
 256,  307,  308,  354,  336,  399,  400,  446,  428
 257,  319,  360,  359,  318,  411,  452,  451,  410
 258,  356,  360,  335,  357,  448,  452,  427,  449
 259,  336,  324,  283,  307,  428,  416,  375,  399
 260,  309,  358,  354,  308,  401,  450,  446,  400
 261,  311,  347,  346,  310,  403,  439,  438,  402
 262,  312,  348,  347,  311,  404,  440,  439,  403
 263,  313,  349,  348,  312,  405,  441,  440,  404
 264,  314,  350,  349,  313,  406,  442,  441,  405
 265,  315,  351,  350,  314,  407,  443,  442,  406
 266,  316,  352,  351,  315,  408,  444,  443,  407
 267,  317,  353,  352,  316,  409,  445,  444,  408
 268,  358,  309,  310,  346,  450,  401,  402,  438
 269,  359,  355,  345,  353,  451,  447,  437,  445
 270,  332,  304,  303,  357,  424,  396,  395,  449
 271,  331,  361,  368,  335,  423,  453,  460,  427
 272,  305,  285,  322,  367,  397,  377,  414,  459
 273,  306,  288,  321,  363,  398,  380,  413,  455
 274,  278,  365,  326,  277,  370,  457,  418,  369
 275,  366,  324,  333,  325,  458,  416,  425,  417
 276,  322,  327,  321,  367,  414,  419,  413,  459
 277,  417,  372,  373,  458,  509,  464,  465,  550
 278,  370,  371,  456,  457,  462,  463,  548,  549
 279,  371,  372,  417,  456,  463,  464,  509,  548
 280,  420,  418,  417,  425,  512,  510,  509,  517
 281,  374,  420,  426,  383,  466,  512,  518,  475
 282,  376,  415,  414,  377,  468,  507,  506,  469
 283,  454,  379,  378,  422,  546,  471,  470,  514
 284,  381,  398,  455,  421,  473,  490,  547,  513
 285,  383,  426,  429,  384,  475,  518,  521,  476
 286,  384,  429,  430,  385,  476,  521,  522,  477
 287,  385,  430,  431,  386,  477,  522,  523,  478
 288,  386,  431,  432,  387,  478,  523,  524,  479
 289,  387,  432,  433,  388,  479,  524,  525,  480
 290,  388,  433,  434,  389,  480,  525,  526,  481
 291,  389,  434,  435,  390,  481,  526,  527,  482
 292,  390,  435,  436,  391,  482,  527,  528,  483
 293,  391,  436,  437,  392,  483,  528,  529,  484
 294,  392,  437,  447,  393,  484,  529,  539,  485
 295,  393,  447,  448,  394,  485,  539,  540,  486
 296,  394,  448,  449,  395,  486,  540,  541,  487
 297,  414,  415,  453,  419,  506,  507,  545,  511
 298,  413,  380,  379,  454,  505,  472,  471,  546
 299,  423,  382,  381,  421,  515,  474,  473,  513
 300,  425,  416,  428,  446,  517,  508,  520,  538
 301,  426,  446,  450,  429,  518,  538,  542,  521
 302,  429,  450,  438,  430,  521,  542,  530,  522
 303,  430,  438,  439,  431,  522,  530,  531,  523
 304,  431,  439,  440,  432,  523,  531,  532,  524
 305,  432,  440,  441,  433,  524,  532,  533,  525
 306,  433,  441,  442,  434,  525,  533,  534,  526
 307,  434,  442,  443,  435,  526,  534,  535,  527
 308,  435,  443,  444,  436,  527,  535,  536,  528
 309,  436,  444,  445,  437,  528,  536,  537,  529
 310,  410,  451,  445,  409,  502,  543,  537,  501
 311,  447,  451,  452,  448,  539,  543,  544,  540
 312,  424,  449,  427,  460,  516,  541,  519,  552
 313,  378,  397,  459,  422,  470,  489,  551,  514
 314,  396,  424,  415,  376,  488,  516,  507,  468
 315,  418,  457,  456,  417,  510,  549,  548,  509
 316,  458,  373,  375,  416,  550,  465,  467,  508
 317,  420,  374,  369,  418,  512,  466,  461,  510
 318,  455,  413,  419,  421,  547,  505,  511,  513
 319,  419,  453,  423,  421,  511,  545,  515,  513
 320,  446,  426,  420,  425,  538,  518,  512,  517
 321,  427,  412,  382,  423,  519,  504,  474,  515
 322,  454,  422,  459,  413,  546,  514,  551,  505
 323,  452,  411,  412,  427,  544,  503,  504,  519
 324,  424,  460,  453,  415,  516,  552,  545,  507
 325,  399,  400,  446,  428,  491,  492,  538,  520
 326,  411,  452,  451,  410,  503,  544,  543,  502
 327,  448,  452,  427,  449,  540,  544,  519,  541
 328,  428,  416,  375,  399,  520,  508,  467,  491
 329,  401,  450,  446,  400,  493,  542,  538,  492
 330,  403,  439,  438,  402,  495,  531,  530,  494
 331,  404,  440,  439,  403,  496,  532,  531,  495
 332,  405,  441,  440,  404,  497,  533,  532,  496
 333,  406,  442,  441,  405,  498,  534,  533,  497
 334,  407,  443,  442,  406,  499,  535,  534,  498
 335,  408,  444,  443,  407,  500,  536,  535,  499
 336,  409,  445,  444,  408,  501,  537,  536,  500
 337,  450,  401,  402,  438,  542,  493,  494,  530
 338,  451,  447,  437,  445,  543,  539,  529,  537
 339,  424,  396,  395,  449,  516,  488,  487,  541
 340,  423,  453,  460,  427,  515,  545,  552,  519
 341,  397,  377,  414,  459,  489,  469,  506,  551
 342,  398,  380,  413,  455,  490,  472,  505,  547
 343,  370,  457,  418,  369,  462,  549,  510,  461
 344,  458,  416,  425,  417,  550,  508,  517,  509
 345,  414,  419,  413,  459,  506,  511,  505,  551
 346,  509,  464,  465,  550,  601,  556,  557,  642
 347,  462,  463,  548,  549,  554,  555,  640,  641
 348,  463,  464,  509,  548,  555,  556,  601,  640
 349,  512,  510,  509,  517,  604,  602,  601,  609
 350,  466,  512,  518,  475,  558,  604,  610,  567
 351,  468,  507,  506,  469,  560,  599,  598,  561
 352,  546,  471,  470,  514,  638,  563,  562,  606
 353,  473,  490,  547,  513,  565,  582,  639,  605
 354,  475,  518,  521,  476,  567,  610,  613,  568
 355,  476,  521,  522,  477,  568,  613,  614,  569
 356,  477,  522,  523,  478,  569,  614,  615,  570
 357,  478,  523,  524,  479,  570,  615,  616,  571
 358,  479,  524,  525,  480,  571,  616,  617,  572
 359,  480,  525,  526,  481,  572,  617,  618,  573
 360,  481,  526,  527,  482,  573,  618,  619,  574
 361,  482,  527,  528,  483,  574,  619,  620,  575
 362,  483,  528,  529,  484,  575,  620,  621,  576
 363,  484,  529,  539,  485,  576,  621,  631,  577
 364,  485,  539,  540,  486,  577,  631,  632,  578
 365,  486,  540,  541,  487,  578,  632,  633,  579
 366,  506,  507,  545,  511,  598,  599,  637,  603
 367,  505,  472,  471,  546,  597,  564,  563,  638
 368,  515,  474,  473,  513,  607,  566,  565,  605
 369,  517,  508,  520,  538,  609,  600,  612,  630
 370,  518,  538,  542,  521,  610,  630,  634,  613
 371,  521,  542,  530,  522,  613,  634,  622,  614
 372,  522,  530,  531,  523,  614,  622,  623,  615
 373,  523,  531,  532,  524,  615,  623,  624,  616
 374,  524,  532,  533,  525,  616,  624,  625,  617
 375,  525,  533,  534,  526,  617,  625,  626,  618
 376,  526,  534,  535,  527,  618,  626,  627,  619
 377,  527,  535,  536,  528,  619,  627,  628,  620
 378,  528,  536,  537,  529,  620,  628,  629,  621
 379,  502,  543,  537,  501,  594,  635,  629,  593
 380,  539,  543,  544,  540,  631,  635,  636,  632
 381,  516,  541,  519,  552,  608,  633,  611,  644
 382,  470,  489,  551,  514,  562,  581,  643,  606
 383,  488,  516,  507,  468,  580,  608,  599,  560
 384,  510,  549,  548,  509,  602,  641,  640,  601
 385,  550,  465,  467,  508,  642,  557,  559,  600
 386,  512,  466,  461,  510,  604,  558,  553,  602
 387,  547,  505,  511,  513,  639,  597,  603,  605
 388,  511,  545,  515,  513,  603,  637,  607,  605
 389,  538,  518,  512,  517,  630,  610,  604,  609
 390,  519,  504,  474,  515,  611,  596,  566,  607
 391,  546,  514,  551,  505,  638,  606,  643,  597
 392,  544,  503,  504,  519,  636,  595,  596,  611
 393,  516,  552,  545,  507,  608,  644,  637,  599
 394,  491,  492,  538,  520,  583,  584,  630,  612
 395,  503,  544,  543,  502,  595,  636,  635,  594
 396,  540,  544,  519,  541,  632,  636,  611,  633
 397,  520,  508,  467,  491,  612,  600,  559,  583
 398,  493,  542,  538,  492,  585,  634,  630,  584
 399,  495,  531,  530,  494,  587,  623,  622,  586
 400,  496,  532,  531,  495,  588,  624,  623,  587
 401,  497,  533,  532,  496,  589,  625,  624,  588
 402,  498,  534,  533,  497,  590,  626,  625,  589
 403,  499,  535,  534,  498,  591,  627,  626,  590
 404,  500,  536,  535,  499,  592,  628,  627,  591
 405,  501,  537,  536,  500,  593,  629,  628,  592
 406,  542,  493,  494,  530,  634,  585,  586,  622
 407,  543,  539,  529,  537,  635,  631,  621,  629
 408,  516,  488,  487,  541,  608,  580,  579,  633
 409,  515,  545,  552,  519,  607,  637,  644,  611
 410,  489,  469,  506,  551,  581,  561,  598,  643
 411,  490,  472,  505,  547,  582,  564,  597,  639
 412,  462,  549,  510,  461,  554,  641,  602,  553
 413,  550,  508,  517,  509,  642,  600,  609,  601
 414,  506,  511,  505,  551,  598,  603,  597,  643
 415,  601,  556,  557,  642,  693,  648,  649,  734
 416,  554,  555,  640,  641,  646,  647,  732,  733
 417,  555,  556,  601,  640,  647,  648,  693,  732
 418,  604,  602,  601,  609,  696,  694,  693,  701
 419,  558,  604,  610,  567,  650,  696,  702,  659
 420,  560,  599,  598,  561,  652,  691,  690,  653
 421,  638,  563,  562,  606,  730,  655,  654,  698
 422,  565,  582,  639,  605,  657,  674,  731,  697
 423,  567,  610,  613,  568,  659,  702,  705,  660
 424,  568,  613,  614,  569,  660,  705,  706,  661
 425,  569,  614,  615,  570,  661,  706,  707,  662
 426,  570,  615,  616,  571,  662,  707,  708,  663
 427,  571,  616,  617,  572,  663,  708,  709,  664
 428,  572,  617,  618,  573,  664,  709,  710,  665
 429,  573,  618,  619,  574,  665,  710,  711,  666
 430,  574,  619,  620,  575,  666,  711,  712,  667
 431,  575,  620,  621,  576,  667,  712,  713,  668
 432,  576,  621,  631,  577,  668,  713,  723,  669
 433,  577,  631,  632,  578,  669,  723,  724,  670
 434,  578,  632,  633,  579,  670,  724,  725,  671
 435,  598,  599,  637,  603,  690,  691,  729,  695
 436,  597,  564,  563,  638,  689,  656,  655,  730
 437,  607,  566,  565,  605,  699,  658,  657,  697
 438,  609,  600,  612,  630,  701,  692,  704,  722
 439,  610,  630,  634,  613,  702,  722,  726,  705
 440,  613,  634,  622,  614,  705,  726,  714,  706
 441,  614,  622,  623,  615,  706,  714,  715,  707
 442,  615,  623,  624,  616,  707,  715,  716,  708
 443,  616,  624,  625,  617,  708,  716,  717,  709
 444,  617,  625,  626,  618,  709,  717,  718,  710
 445,  618,  626,  627,  619,  710,  718,  719,  711
 446,  619,  627,  628,  620,  711,  719,  720,  712
 447,  620,  628,  629,  621,  712,  720,  721,  713
 448,  594,  635,  629,  593,  686,  727,  721,  685
 449,  631,  635,  636,  632,  723,  727,  728,  724
 450,  608,  633,  611,  644,  700,  725,  703,  736
 451,  562,  581,  643,  606,  654,  673,  735,  698
 452,  580,  608,  599,  560,  672,  700,  691,  652
 453,  602,  641,  640,  601,  694,  733,  732,  693
 454,  642,  557,  559,  600,  734,  649,  651,  692
 455,  604,  558,  553,  602,  696,  650,  645,  694
 456,  639,  597,  603,  605,  731,  689,  695,  697
 457,  603,  637,  607,  605,  695,  729,  699,  697
 458,  630,  610,  604,  609,  722,  702,  696,  701
 459,  611,  596,  566,  607,  703,  688,  658,  699
 460,  638,  606,  643,  597,  730,  698,  735,  689
 461,  636,  595,  596,  611,  728,  687,  688,  703
 462,  608,  644,  637,  599,  700,  736,  729,  691
 463,  583,  584,  630,  612,  675,  676,  722,  704
 464,  595,  636,  635,  594,  687,  728,  727,  686
 465,  632,  636,  611,  633,  724,  728,  703,  725
 466,  612,  600,  559,  583,  704,  692,  651,  675
 467,  585,  634,  630,  584,  677,  726,  722,  676
 468,  587,  623,  622,  586,  679,  715,  714,  678
 469,  588,  624,  623,  587,  680,  716,  715,  679
 470,  589,  625,  624,  588,  681,  717,  716,  680
 471,  590,  626,  625,  589,  682,  718,  717,  681
 472,  591,  627,  626,  590,  683,  719,  718,  682
 473,  592,  628,  627,  591,  684,  720,  719,  683
 474,  593,  629,  628,  592,  685,  721,  720,  684
 475,  634,  585,  586,  622,  726,  677,  678,  714
 476,  635,  631,  621,  629,  727,  723,  713,  721
 477,  608,  580,  579,  633,  700,  672,  671,  725
 478,  607,  637,  644,  611,  699,  729,  736,  703
 479,  581,  561,  598,  643,  673,  653,  690,  735
 480,  582,  564,  597,  639,  674,  656,  689,  731
 481,  554,  641,  602,  553,  646,  733,  694,  645
 482,  642,  600,  609,  601,  734,  692,  701,  693
 483,  598,  603,  597,  643,  690,  695,  689,  735
 484,  693,  648,  649,  734,  785,  740,  741,  826
 485,  646,  647,  732,  733,  738,  739,  824,  825
 486,  647,  648,  693,  732,  739,  740,  785,  824
 487,  696,  694,  693,  701,  788,  786,  785,  793
 488,  650,  696,  702,  659,  742,  788,  794,  751
 489,  652,  691,  690,  653,  744,  783,  782,  745
 490,  730,  655,  654,  698,  822,  747,  746,  790
 491,  657,  674,  731,  697,  749,  766,  823,  789
 492,  659,  702,  705,  660,  751,  794,  797,  752
 493,  660,  705,  706,  661,  752,  797,  798,  753
 494,  661,  706,  707,  662,  753,  798,  799,  754
 495,  662,  707,  708,  663,  754,  799,  800,  755
 496,  663,  708,  709,  664,  755,  800,  801,  756
 497,  664,  709,  710,  665,  756,  801,  802,  757
 498,  665,  710,  711,  666,  757,  802,  803,  758
 499,  666,  711,  712,  667,  758,  803,  804,  759
 500,  667,  712,  713,  668,  759,  804,  805,  760
 501,  668,  713,  723,  669,  760,  805,  815,  761
 502,  669,  723,  724,  670,  761,  815,  816,  762
 503,  670,  724,  725,  671,  762,  816,  817,  763
 504,  690,  691,  729,  695,  782,  783,  821,  787
 505,  689,  656,  655,  730,  781,  748,  747,  822
 506,  699,  658,  657,  697,  791,  750,  749,  789
 507,  701,  692,  704,  722,  793,  784,  796,  814
 508,  702,  722,  726,  705,  794,  814,  818,  797
 509,  705,  726,  714,  706,  797,  818,  806,  798
 510,  706,  714,  715,  707,  798,  806,  807,  799
 511,  707,  715,  716,  708,  799,  807,  808,  800
 512,  708,  716,  717,  709,  800,  808,  809,  801
 513,  709,  717,  718,  710,  801,  809,  810,  802
 514,  710,  718,  719,  711,  802,  810,  811,  803
 515,  711,  719,  720,  712,  803,  811,  812,  804
 516,  712,  720,  721,  713,  804,  812,  813,  805
 517,  686,  727,  721,  685,  778,  819,  813,  777
 518,  723,  727,  728,  724,  815,  819,  820,  816
 519,  700,  725,  703,  736,  792,  817,  795,  828
 520,  654,  673,  735,  698,  746,  765,  827,  790
 521,  672,  700,  691,  652,  764,  792,  783,  744
 522,  694,  733,  732,  693,  786,  825,  824,  785
 523,  734,  649,  651,  692,  826,  741,  743,  784
 524,  696,  650,  645,  694,  788,  742,  737,  786
 525,  731,  689,  695,  697,  823,  781,  787,  789
 526,  695,  729,  699,  697,  787,  821,  791,  789
 527,  722,  702,  696,  701,  814,  794,  788,  793
 528,  703,  688,  658,  699,  795,  780,  750,  791
 529,  730,  698,  735,  689,  822,  790,  827,  781
 530,  728,  687,  688,  703,  820,  779,  780,  795
 531,  700,  736,  729,  691,  792,  828,  821,  783
 532,  675,  676,  722,  704,  767,  768,  814,  796
 533,  687,  728,  727,  686,  779,  820,  819,  778
 534,  724,  728,  703,  725,  816,  820,  795,  817
 535,  704,  692,  651,  675,  796,  784,  743,  767
 536,  677,  726,  722,  676,  769,  818,  814,  768
 537,  679,  715,  714,  678,  771,  807,  806,  770
 538,  680,  716,  715,  679,  772,  808,  807,  771
 539,  681,  717,  716,  680,  773,  809,  808,  772
 540,  682,  718,  717,  681,  774,  810,  809,  773
 541,  683,  719,  718,  682,  775,  811,  810,  774
 542,  684,  720,  719,  683,  776,  812,  811,  775
 543,  685,  721,  720,  684,  777,  813,  812,  776
 544,  726,  677,  678,  714,  818,  769,  770,  806
 545,  727,  723,  713,  721,  819,  815,  805,  813
 546,  700,  672,  671,  725,  792,  764,  763,  817
 547,  699,  729,  736,  703,  791,  821,  828,  795
 548,  673,  653,  690,  735,  765,  745,  782,  827
 549,  674,  656,  689,  731,  766,  748,  781,  823
 550,  646,  733,  694,  645,  738,  825,  786,  737
 551,  734,  692,  701,  693,  826,  784,  793,  785
 552,  690,  695,  689,  735,  782,  787,  781,  827
 553,  785,  740,  741,  826,  877,  832,  833,  918
 554,  738,  739,  824,  825,  830,  831,  916,  917
 555,  739,  740,  785,  824,  831,  832,  877,  916
 556,  788,  786,  785,  793,  880,  878,  877,  885
 557,  742,  788,  794,  751,  834,  880,  886,  843
 558,  744,  783,  782,  745,  836,  875,  874,  837
 559,  822,  747,  746,  790,  914,  839,  838,  882
 560,  749,  766,  823,  789,  841,  858,  915,  881
 561,  751,  794,  797,  752,  843,  886,  889,  844
 562,  752,  797,  798,  753,  844,  889,  890,  845
 563,  753,  798,  799,  754,  845,  890,  891,  846
 564,  754,  799,  800,  755,  846,  891,  892,  847
 565,  755,  800,  801,  756,  847,  892,  893,  848
 566,  756,  801,  802,  757,  848,  893,  894,  849
 567,  757,  802,  803,  758,  849,  894,  895,  850
 568,  758,  803,  804,  759,  850,  895,  896,  851
 569,  759,  804,  805,  760,  851,  896,  897,  852
 570,  760,  805,  815,  761,  852,  897,  907,  853
 571,  761,  815,  816,  762,  853,  907,  908,  854
 572,  762,  816,  817,  763,  854,  908,  909,  855
 573,  782,  783,  821,  787,  874,  875,  913,  879
 574,  781,  748,  747,  822,  873,  840,  839,  914
 575,  791,  750,  749,  789,  883,  842,  841,  881
 576,  793,  784,  796,  814,  885,  876,  888,  906
 577,  794,  814,  818,  797,  886,  906,  910,  889
 578,  797,  818,  806,  798,  889,  910,  898,  890
 579,  798,  806,  807,  799,  890,  898,  899,  891
 580,  799,  807,  808,  800,  891,  899,  900,  892
 581,  800,  808,  809,  801,  892,  900,  901,  893
 582,  801,  809,  810,  802,  893,  901,  902,  894
 583,  802,  810,  811,  803,  894,  902,  903,  895
 584,  803,  811,  812,  804,  895,  903,  904,  896
 585,  804,  812,  813,  805,  896,  904,  905,  897
 586,  778,  819,  813,  777,  870,  911,  905,  869
 587,  815,  819,  820,  816,  907,  911,  912,  908
 588,  792,  817,  795,  828,  884,  909,  887,  920
 589,  746,  765,  827,  790,  838,  857,  919,  882
 590,  764,  792,  783,  744,  856,  884,  875,  836
 591,  786,  825,  824,  785,  878,  917,  916,  877
 592,  826,  741,  743,  784,  918,  833,  835,  876
 593,  788,  742,  737,  786,  880,  834,  829,  878
 594,  823,  781,  787,  789,  915,  873,  879,  881
 595,  787,  821,  791,  789,  879,  913,  883,  881
 596,  814,  794,  788,  793,  906,  886,  880,  885
 597,  795,  780,  750,  791,  887,  872,  842,  883
 598,  822,  790,  827,  781,  914,  882,  919,  873
 599,  820,  779,  780,  795,  912,  871,  872,  887
 600,  792,  828,  821,  783,  884,  920,  913,  875
 601,  767,  768,  814,  796,  859,  860,  906,  888
 602,  779,  820,  819,  778,  871,  912,  911,  870
 603,  816,  820,  795,  817,  908,  912,  887,  909
 604,  796,  784,  743,  767,  888,  876,  835,  859
 605,  769,  818,  814,  768,  861,  910,  906,  860
 606,  771,  807,  806,  770,  863,  899,  898,  862
 607,  772,  808,  807,  771,  864,  900,  899,  863
 608,  773,  809,  808,  772,  865,  901,  900,  864
 609,  774,  810,  809,  773,  866,  902,  901,  865
 610,  775,  811,  810,  774,  867,  903,  902,  866
 611,  776,  812,  811,  775,  868,  904,  903,  867
 612,  777,  813,  812,  776,  869,  905,  904,  868
 613,  818,  769,  770,  806,  910,  861,  862,  898
 614,  819,  815,  805,  813,  911,  907,  897,  905
 615,  792,  764,  763,  817,  884,  856,  855,  909
 616,  791,  821,  828,  795,  883,  913,  920,  887
 617,  765,  745,  782,  827,  857,  837,  874,  919
 618,  766,  748,  781,  823,  858,  840,  873,  915
 619,  738,  825,  786,  737,  830,  917,  878,  829
 620,  826,  784,  793,  785,  918,  876,  885,  877
 621,  782,  787,  781,  827,  874,  879,  873,  919
 622,  877,  832,  833,  918,  969,  924,  925, 1010
 623,  830,  831,  916,  917,  922,  923, 1008, 1009
 624,  831,  832,  877,  916,  923,  924,  969, 1008
 625,  880,  878,  877,  885,  972,  970,  969,  977
 626,  834,  880,  886,  843,  926,  972,  978,  935
 627,  836,  875,  874,  837,  928,  967,  966,  929
 628,  914,  839,  838,  882, 1006,  931,  930,  974
 629,  841,  858,  915,  881,  933,  950, 1007,  973
 630,  843,  886,  889,  844,  935,  978,  981,  936
 631,  844,  889,  890,  845,  936,  981,  982,  937
 632,  845,  890,  891,  846,  937,  982,  983,  938
 633,  846,  891,  892,  847,  938,  983,  984,  939
 634,  847,  892,  893,  848,  939,  984,  985,  940
 635,  848,  893,  894,  849,  940,  985,  986,  941
 636,  849,  894,  895,  850,  941,  986,  987,  942
 637,  850,  895,  896,  851,  942,  987,  988,  943
 638,  851,  896,  897,  852,  943,  988,  989,  944
 639,  852,  897,  907,  853,  944,  989,  999,  945
 640,  853,  907,  908,  854,  945,  999, 1000,  946
 641,  854,  908,  909,  855,  946, 1000, 1001,  947
 642,  874,  875,  913,  879,  966,  967, 1005,  971
 643,  873,  840,  839,  914,  965,  932,  931, 1006
 644,  883,  842,  841,  881,  975,  934,  933,  973
 645,  885,  876,  888,  906,  977,  968,  980,  998
 646,  886,  906,  910,  889,  978,  998, 1002,  981
 647,  889,  910,  898,  890,  981, 1002,  990,  982
 648,  890,  898,  899,  891,  982,  990,  991,  983
 649,  891,  899,  900,  892,  983,  991,  992,  984
 650,  892,  900,  901,  893,  984,  992,  993,  985
 651,  893,  901,  902,  894,  985,  993,  994,  986
 652,  894,  902,  903,  895,  986,  994,  995,  987
 653,  895,  903,  904,  896,  987,  995,  996,  988
 654,  896,  904,  905,  897,  988,  996,  997,  989
 655,  870,  911,  905,  869,  962, 1003,  997,  961
 656,  907,  911,  912,  908,  999, 1003, 1004, 1000
 657,  884,  909,  887,  920,  976, 1001,  979, 1012
 658,  838,  857,  919,  882,  930,  949, 1011,  974
 659,  856,  884,  875,  836,  948,  976,  967,  928
 660,  878,  917,  916,  877,  970, 1009, 1008,  969
 661,  918,  833,  835,  876, 1010,  925,  927,  968
 662,  880,  834,  829,  878,  972,  926,  921,  970
 663,  915,  873,  879,  881, 1007,  965,  971,  973
 664,  879,  913,  883,  881,  971, 1005,  975,  973
 665,  906,  886,  880,  885,  998,  978,  972,  977
 666,  887,  872,  842,  883,  979,  964,  934,  975
 667,  914,  882,  919,  873, 1006,  974, 1011,  965
 668,  912,  871,  872,  887, 1004,  963,  964,  979
 669,  884,  920,  913,  875,  976, 1012, 1005,  967
 670,  859,  860,  906,  888,  951,  952,  998,  980
 671,  871,  912,  911,  870,  963, 1004, 1003,  962
 672,  908,  912,  887,  909, 1000, 1004,  979, 1001
 673,  888,  876,  835,  859,  980,  968,  927,  951
 674,  861,  910,  906,  860,  953, 1002,  998,  952
 675,  863,  899,  898,  862,  955,  991,  990,  954
 676,  864,  900,  899,  863,  956,  992,  991,  955
 677,  865,  901,  900,  864,  957,  993,  992,  956
 678,  866,  902,  901,  865,  958,  994,  993,  957
 679,  867,  903,  902,  866,  959,  995,  994,  958
 680,  868,  904,  903,  867,  960,  996,  995,  959
 681,  869,  905,  904,  868,  961,  997,  996,  960
 682,  910,  861,  862,  898, 1002,  953,  954,  990
 683,  911,  907,  897,  905, 1003,  999,  989,  997
 684,  884,  856,  855,  909,  976,  948,  947, 1001
 685,  883,  913,  920,  887,  975, 1005, 1012,  979
 686,  857,  837,  874,  919,  949,  929,  966, 1011
 687,  858,  840,  873,  915,  950,  932,  965, 1007
 688,  830,  917,  878,  829,  922, 1009,  970,  921
 689,  918,  876,  885,  877, 1010,  968,  977,  969
 690,  874,  879,  873,  919,  966,  971,  965, 1011
 691,  969,  924,  925, 1010, 1061, 1016, 1017, 1102
 692,  922,  923, 1008, 1009, 1014, 1015, 1100, 1101
 693,  923,  924,  969, 1008, 1015, 1016, 1061, 1100
 694,  972,  970,  969,  977, 1064, 1062, 1061, 1069
 695,  926,  972,  978,  935, 1018, 1064, 1070, 1027
 696,  928,  967,  966,  929, 1020, 1059, 1058, 1021
 697, 1006,  931,  930,  974, 1098, 1023, 1022, 1066
 698,  933,  950, 1007,  973, 1025, 1042, 1099, 1065
 699,  935,  978,  981,  936, 1027, 1070, 1073, 1028
 700,  936,  981,  982,  937, 1028, 1073, 1074, 1029
 701,  937,  982,  983,  938, 1029, 1074, 1075, 1030
 702,  938,  983,  984,  939, 1030, 1075, 1076, 1031
 703,  939,  984,  985,  940, 1031, 1076, 1077, 1032
 704,  940,  985,  986,  941, 1032, 1077, 1078, 1033
 705,  941,  986,  987,  942, 1033, 1078, 1079, 1034
 706,  942,  987,  988,  943, 1034, 1079, 1080, 1035
 707,  943,  988,  989,  944, 1035, 1080, 1081, 1036
 708,  944,  989,  999,  945, 1036, 1081, 1091, 1037
 709,  945,  999, 1000,  946, 1037, 1091, 1092, 1038
 710,  946, 1000, 1001,  947, 1038, 1092, 1093, 1039
 711,  966,  967, 1005,  971, 1058, 1059, 1097, 1063
 712,  965,  932,  931, 1006, 1057, 1024, 1023, 1098
 713,  975,  934,  933,  973, 1067, 1026, 1025, 1065
 714,  977,  968,  980,  998, 1069, 1060, 1072, 1090
 715,  978,  998, 1002,  981, 1070, 1090, 1094, 1073
 716,  981, 1002,  990,  982, 1073, 1094, 1082, 1074
 717,  982,  990,  991,  983, 1074, 1082, 1083, 1075
 718,  983,  991,  992,  984, 1075, 1083, 1084, 1076
 719,  984,  992,  993,  985, 1076, 1084, 1085, 1077
 720,  985,  993,  994,  986, 1077, 1085, 1086, 1078
 721,  986,  994,  995,  987, 1078, 1086, 1087, 1079
 722,  987,  995,  996,  988, 1079, 1087, 1088, 1080
 723,  988,  996,  997,  989, 1080, 1088, 1089, 1081
 724,  962, 1003,  997,  961, 1054, 1095, 1089, 1053
 725,  999, 1003, 1004, 1000, 1091, 1095, 1096, 1092
 726,  976, 1001,  979, 1012, 1068, 1093, 1071, 1104
 727,  930,  949, 1011,  974, 1022, 1041, 1103, 1066
 728,  948,  976,  967,  928, 1040, 1068, 1059, 1020
 729,  970, 1009, 1008,  969, 1062, 1101, 1100, 1061
 730, 1010,  925,  927,  968, 1102, 1017, 1019, 1060
 731,  972,  926,  921,  970, 1064, 1018, 1013, 1062
 732, 1007,  965,  971,  973, 1099, 1057, 1063, 1065
 733,  971, 1005,  975,  973, 1063, 1097, 1067, 1065
 734,  998,  978,  972,  977, 1090, 1070, 1064, 1069
 735,  979,  964,  934,  975, 1071, 1056, 1026, 1067
 736, 1006,  974, 1011,  965, 1098, 1066, 1103, 1057
 737, 1004,  963,  964,  979, 1096, 1055, 1056, 1071
 738,  976, 1012, 1005,  967, 1068, 1104, 1097, 1059
 739,  951,  952,  998,  980, 1043, 1044, 1090, 1072
 740,  963, 1004, 1003,  962, 1055, 1096, 1095, 1054
 741, 1000, 1004,  979, 1001, 1092, 1096, 1071, 1093
 742,  980,  968,  927,  951, 1072, 1060, 1019, 1043
 743,  953, 1002,  998,  952, 1045, 1094, 1090, 1044
 744,  955,  991,  990,  954, 1047, 1083, 1082, 1046
 745,  956,  992,  991,  955, 1048, 1084, 1083, 1047
 746,  957,  993,  992,  956, 1049, 1085, 1084, 1048
 747,  958,  994,  993,  957, 1050, 1086, 1085, 1049
 748,  959,  995,  994,  958, 1051, 1087, 1086, 1050
 749,  960,  996,  995,  959, 1052, 1088, 1087, 1051
 750,  961,  997,  996,  960, 1053, 1089, 1088, 1052
 751, 1002,  953,  954,  990, 1094, 1045, 1046, 1082
 752, 1003,  999,  989,  997, 1095, 1091, 1081, 1089
 753,  976,  948,  947, 1001, 1068, 1040, 1039, 1093
 754,  975, 1005, 1012,  979, 1067, 1097, 1104, 1071
 755,  949,  929,  966, 1011, 1041, 1021, 1058, 1103
 756,  950,  932,  965, 1007, 1042, 1024, 1057, 1099
 757,  922, 1009,  970,  921, 1014, 1101, 1062, 1013
 758, 1010,  968,  977,  969, 1102, 1060, 1069, 1061
 759,  966,  971,  965, 1011, 1058, 1063, 1057, 1103
 760, 1061, 1016, 1017, 1102, 1153, 1108, 1109, 1194
 761, 1014, 1015, 1100, 1101, 1106, 1107, 1192, 1193
 762, 1015, 1016, 1061, 1100, 1107, 1108, 1153, 1192
 763, 1064, 1062, 1061, 1069, 1156, 1154, 1153, 1161
 764, 1018, 1064, 1070, 1027, 1110, 1156, 1162, 1119
 765, 1020, 1059, 1058, 1021, 1112, 1151, 1150, 1113
 766, 1098, 1023, 1022, 1066, 1190, 1115, 1114, 1158
 767, 1025, 1042, 1099, 1065, 1117, 1134, 1191, 1157
 768, 1027, 1070, 1073, 1028, 1119, 1162, 1165, 1120
 769, 1028, 1073, 1074, 1029, 1120, 1165, 1166, 1121
 770, 1029, 1074, 1075, 1030, 1121, 1166, 1167, 1122
 771, 1030, 1075, 1076, 1031, 1122, 1167, 1168, 1123
 772, 1031, 1076, 1077, 1032, 1123, 1168, 1169, 1124
 773, 1032, 1077, 1078, 1033, 1124, 1169, 1170, 1125
 774, 1033, 1078, 1079, 1034, 1125, 1170, 1171, 1126
 775, 1034, 1079, 1080, 1035, 1126, 1171, 1172, 1127
 776, 1035, 1080, 1081, 1036, 1127, 1172, 1173, 1128
 777, 1036, 1081, 1091, 1037, 1128, 1173, 1183, 1129
 778, 1037, 1091, 1092, 1038, 1129, 1183, 1184, 1130
 779, 1038, 1092, 1093, 1039, 1130, 1184, 1185, 1131
 780, 1058, 1059, 1097, 1063, 1150, 1151, 1189, 1155
 781, 1057, 1024, 1023, 1098, 1149, 1116, 1115, 1190
 782, 1067, 1026, 1025, 1065, 1159, 1118, 1117, 1157
 783, 1069, 1060, 1072, 1090, 1161, 1152, 1164, 1182
 784, 1070, 1090, 1094, 1073, 1162, 1182, 1186, 1165
 785, 1073, 1094, 1082, 1074, 1165, 1186, 1174, 1166
 786, 1074, 1082, 1083, 1075, 1166, 1174, 1175, 1167
 787, 1075, 1083, 1084, 1076, 1167, 1175, 1176, 1168
 788, 1076, 1084, 1085, 1077, 1168, 1176, 1177, 1169
 789, 1077, 1085, 1086, 1078, 1169, 1177, 1178, 1170
 790, 1078, 1086, 1087, 1079, 1170, 1178, 1179, 1171
 791, 1079, 1087, 1088, 1080, 1171, 1179, 1180, 1172
 792, 1080, 1088, 1089, 1081, 1172, 1180, 1181, 1173
 793, 1054, 1095, 1089, 1053, 1146, 1187, 1181, 1145
 794, 1091, 1095, 1096, 1092, 1183, 1187, 1188, 1184
 795, 1068, 1093, 1071, 1104, 1160, 1185, 1163, 1196
 796, 1022, 1041, 1103, 1066, 1114, 1133, 1195, 1158
 797, 1040, 1068, 1059, 1020, 1132, 1160, 1151, 1112
 798, 1062, 1101, 1100, 1061, 1154, 1193, 1192, 1153
 799, 1102, 1017, 1019, 1060, 1194, 1109, 1111, 1152
 800, 1064, 1018, 1013, 1062, 1156, 1110, 1105, 1154
 801, 1099, 1057, 1063, 1065, 1191, 1149, 1155, 1157
 802, 1063, 1097, 1067, 1065, 1155, 1189, 1159, 1157
 803, 1090, 1070, 1064, 1069, 1182, 1162, 1156, 1161
 804, 1071, 1056, 1026, 1067, 1163, 1148, 1118, 1159
 805, 1098, 1066, 1103, 1057, 1190, 1158, 1195, 1149
 806, 1096, 1055, 1056, 1071, 1188, 1147, 1148, 1163
 807, 1068, 1104, 1097, 1059, 1160, 1196, 1189, 1151
 808, 1043, 1044, 1090, 1072, 1135, 1136, 1182, 1164
 809, 1055, 1096, 1095, 1054, 1147, 1188, 1187, 1146
 810, 1092, 1096, 1071, 1093, 1184, 1188, 1163, 1185
 811, 1072, 1060, 1019, 1043, 1164, 1152, 1111, 1135
 812, 1045, 1094, 1090, 1044, 1137, 1186, 1182, 1136
 813, 1047, 1083, 1082, 1046, 1139, 1175, 1174, 1138
 814, 1048, 1084, 1083, 1047, 1140, 1176, 1175, 1139
 815, 1049, 1085, 1084, 1048, 1141, 1177, 1176, 1140
 816, 1050, 1086, 1085, 1049, 1142, 1178, 1177, 1141
 817, 1051, 1087, 1086, 1050, 1143, 1179, 1178, 1142
 818, 1052, 1088, 1087, 1051, 1144, 1180, 1179, 1143
 819, 1053, 1089, 1088, 1052, 1145, 1181, 1180, 1144
 820, 1094, 1045, 1046, 1082, 1186, 1137, 1138, 1174
 821, 1095, 1091, 1081, 1089, 1187, 1183, 1173, 1181
 822, 1068, 1040, 1039, 1093, 1160, 1132, 1131, 1185
 823, 1067, 1097, 1104, 1071, 1159, 1189, 1196, 1163
 824, 1041, 1021, 1058, 1103, 1133, 1113, 1150, 1195
 825, 1042, 1024, 1057, 1099, 1134, 1116, 1149, 1191
 826, 1014, 1101, 1062, 1013, 1106, 1193, 1154, 1105
 827, 1102, 1060, 1069, 1061, 1194, 1152, 1161, 1153
 828, 1058, 1063, 1057, 1103, 1150, 1155, 1149, 1195
 829, 1153, 1108, 1109, 1194, 1245, 1200, 1201, 1286
 830, 1106, 1107, 1192, 1193, 1198, 1199, 1284, 1285
 831, 1107, 1108, 1153, 1192, 1199, 1200, 1245, 1284
 832, 1156, 1154, 1153, 1161, 1248, 1246, 1245, 1253
 833, 1110, 1156, 1162, 1119, 1202, 1248, 1254, 1211
 834, 1112, 1151, 1150, 1113, 1204, 1243, 1242, 1205
 835, 1190, 1115, 1114, 1158, 1282, 1207, 1206, 1250
 836, 1117, 1134, 1191, 1157, 1209, 1226, 1283, 1249
 837, 1119, 1162, 1165, 1120, 1211, 1254, 1257, 1212
 838, 1120, 1165, 1166, 1121, 1212, 1257, 1258, 1213
 839, 1121, 1166, 1167, 1122, 1213, 1258, 1259, 1214
 840, 1122, 1167, 1168, 1123, 1214, 1259, 1260, 1215
 841, 1123, 1168, 1169, 1124, 1215, 1260, 1261, 1216
 842, 1124, 1169, 1170, 1125, 1216, 1261, 1262, 1217
 843, 1125, 1170, 1171, 1126, 1217, 1262, 1263, 1218
 844, 1126, 1171, 1172, 1127, 1218, 1263, 1264, 1219
 845, 1127, 1172, 1173, 1128, 1219, 1264, 1265, 1220
 846, 1128, 1173, 1183, 1129, 1220, 1265, 1275, 1221
 847, 1129, 1183, 1184, 1130, 1221, 1275, 1276, 1222
 848, 1130, 1184, 1185, 1131, 1222, 1276, 1277, 1223
 849, 1150, 1151, 1189, 1155, 1242, 1243, 1281, 1247
 850, 1149, 1116, 1115, 1190, 1241, 1208, 1207, 1282
 851, 1159, 1118, 1117, 1157, 1251, 1210, 1209, 1249
 852, 1161, 1152, 1164, 1182, 1253, 1244, 1256, 1274
 853, 1162, 1182, 1186, 1165, 1254, 1274, 1278, 1257
 854, 1165, 1186, 1174, 1166, 1257, 1278, 1266, 1258
 855, 1166, 1174, 1175, 1167, 1258, 1266, 1267, 1259
 856, 1167, 1175, 1176, 1168, 1259, 1267, 1268, 1260
 857, 1168, 1176, 1177, 1169, 1260, 1268, 1269, 1261
 858, 1169, 1177, 1178, 1170, 1261, 1269, 1270, 1262
 859, 1170, 1178, 1179, 1171, 1262, 1270, 1271, 1263
 860, 1171, 1179, 1180, 1172, 1263, 1271, 1272, 1264
 861, 1172, 1180, 1181, 1173, 1264, 1272, 1273, 1265
 862, 1146, 1187, 1181, 1145, 1238, 1279, 1273, 1237
 863, 1183, 1187, 1188, 1184, 1275, 1279, 1280, 1276
 864, 1160, 1185, 1163, 1196, 1252, 1277, 1255, 1288
 865, 1114, 1133, 1195, 1158, 1206, 1225, 1287, 1250
 866, 1132, 1160, 1151, 1112, 1224, 1252, 1243, 1204
 867, 1154, 1193, 1192, 1153, 1246, 1285, 1284, 1245
 868, 1194, 1109, 1111, 1152, 1286, 1201, 1203, 1244
 869, 1156, 1110, 1105, 1154, 1248, 1202, 1197, 1246
 870, 1191, 1149, 1155, 1157, 1283, 1241, 1247, 1249
 871, 1155, 1189, 1159, 1157, 1247, 1281, 1251, 1249
 872, 1182, 1162, 1156, 1161, 1274, 1254, 1248, 1253
 873, 1163, 1148, 1118, 1159, 1255, 1240, 1210, 1251
 874, 1190, 1158, 1195, 1149, 1282, 1250, 1287, 1241
 875, 1188, 1147, 1148, 1163, 1280, 1239, 1240, 1255
 876, 1160, 1196, 1189, 1151, 1252, 1288, 1281, 1243
 877, 1135, 1136, 1182, 1164, 1227, 1228, 1274, 1256
 878, 1147, 1188, 1187, 1146, 1239, 1280, 1279, 1238
 879, 1184, 1188, 1163, 1185, 1276, 1280, 1255, 1277
 880, 1164, 1152, 1111, 1135, 1256, 1244, 1203, 1227
 881, 1137, 1186, 1182, 1136, 1229, 1278, 1274, 1228
 882, 1139, 1175, 1174, 1138, 1231, 1267, 1266, 1230
 883, 1140, 1176, 1175, 1139, 1232, 1268, 1267, 1231
 884, 1141, 1177, 1176, 1140, 1233, 1269, 1268, 1232
 885, 1142, 1178, 1177, 1141, 1234, 1270, 1269, 1233
 886, 1143, 1179, 1178, 1142, 1235, 1271, 1270, 1234
 887, 1144, 1180, 1179, 1143, 1236, 1272, 1271, 1235
 888, 1145, 1181, 1180, 1144, 1237, 1273, 1272, 1236
 889, 1186, 1137, 1138, 1174, 1278, 1229, 1230, 1266
 890, 1187, 1183, 1173, 1181, 1279, 1275, 1265, 1273
 891, 1160, 1132, 1131, 1185, 1252, 1224, 1223, 1277
 892, 1159, 1189, 1196, 1163, 1251, 1281, 1288, 1255
 893, 1133, 1113, 1150, 1195, 1225, 1205, 1242, 1287
 894, 1134, 1116, 1149, 1191, 1226, 1208, 1241, 1283
 895, 1106, 1193, 1154, 1105, 1198, 1285, 1246, 1197
 896, 1194, 1152, 1161, 1153, 1286, 1244, 1253, 1245
 897, 1150, 1155, 1149, 1195, 1242, 1247, 1241, 1287
 898, 1245, 1200, 1201, 1286, 1337, 1292, 1293, 1378
 899, 1198, 1199, 1284, 1285, 1290, 1291, 1376, 1377
 900, 1199, 1200, 1245, 1284, 1291, 1292, 1337, 1376
 901, 1248, 1246, 1245, 1253, 1340, 1338, 1337, 1345
 902, 1202, 1248, 1254, 1211, 1294, 1340, 1346, 1303
 903, 1204, 1243, 1242, 1205, 1296, 1335, 1334, 1297
 904, 1282, 1207, 1206, 1250, 1374, 1299, 1298, 1342
 905, 1209, 1226, 1283, 1249, 1301, 1318, 1375, 1341
 906, 1211, 1254, 1257, 1212, 1303, 1346, 1349, 1304
 907, 1212, 1257, 1258, 1213, 1304, 1349, 1350, 1305
 908, 1213, 1258, 1259, 1214, 1305, 1350, 1351, 1306
 909, 1214, 1259, 1260, 1215, 1306, 1351, 1352, 1307
 910, 1215, 1260, 1261, 1216, 1307, 1352, 1353, 1308
 911, 1216, 1261, 1262, 1217, 1308, 1353, 1354, 1309
 912, 1217, 1262, 1263, 1218, 1309, 1354, 1355, 1310
 913, 1218, 1263, 1264, 1219, 1310, 1355, 1356, 1311
 914, 1219, 1264, 1265, 1220, 1311, 1356, 1357, 1312
 915, 1220, 1265, 1275, 1221, 1312, 1357, 1367, 1313
 916, 1221, 1275, 1276, 1222, 1313, 1367, 1368, 1314
 917, 1222, 1276, 1277, 1223, 1314, 1368, 1369, 1315
 918, 1242, 1243, 1281, 1247, 1334, 1335, 1373, 1339
 919, 1241, 1208, 1207, 1282, 1333, 1300, 1299, 1374
 920, 1251, 1210, 1209, 1249, 1343, 1302, 1301, 1341
 921, 1253, 1244, 1256, 1274, 1345, 1336, 1348, 1366
 922, 1254, 1274, 1278, 1257, 1346, 1366, 1370, 1349
 923, 1257, 1278, 1266, 1258, 1349, 1370, 1358, 1350
 924, 1258, 1266, 1267, 1259, 1350, 1358, 1359, 1351
 925, 1259, 1267, 1268, 1260, 1351, 1359, 1360, 1352
 926, 1260, 1268, 1269, 1261, 1352, 1360, 1361, 1353
 927, 1261, 1269, 1270, 1262, 1353, 1361, 1362, 1354
 928, 1262, 1270, 1271, 1263, 1354, 1362, 1363, 1355
 929, 1263, 1271, 1272, 1264, 1355, 1363, 1364, 1356
 930, 1264, 1272, 1273, 1265, 1356, 1364, 1365, 1357
 931, 1238, 1279, 1273, 1237, 1330, 1371, 1365, 1329
 932, 1275, 1279, 1280, 1276, 1367, 1371, 1372, 1368
 933, 1252, 1277, 1255, 1288, 1344, 1369, 1347, 1380
 934, 1206, 1225, 1287, 1250, 1298, 1317, 1379, 1342
 935, 1224, 1252, 1243, 1204, 1316, 1344, 1335, 1296
 936, 1246, 1285, 1284, 1245, 1338, 1377, 1376, 1337
 937, 1286, 1201, 1203, 1244, 1378, 1293, 1295, 1336
 938, 1248, 1202, 1197, 1246, 1340, 1294, 1289, 1338
 939, 1283, 1241, 1247, 1249, 1375, 1333, 1339, 1341
 940, 1247, 1281, 1251, 1249, 1339, 1373, 1343, 1341
 941, 1274, 1254, 1248, 1253, 1366, 1346, 1340, 1345
 942, 1255, 1240, 1210, 1251, 1347, 1332, 1302, 1343
 943, 1282, 1250, 1287, 1241, 1374, 1342, 1379, 1333
 944, 1280, 1239, 1240, 1255, 1372, 1331, 1332, 1347
 945, 1252, 1288, 1281, 1243, 1344, 1380, 1373, 1335
 946, 1227, 1228, 1274, 1256, 1319, 1320, 1366, 1348
 947, 1239, 1280, 1279, 1238, 1331, 1372, 1371, 1330
 948, 1276, 1280, 1255, 1277, 1368, 1372, 1347, 1369
 949, 1256, 1244, 1203, 1227, 1348, 1336, 1295, 1319
 950, 1229, 1278, 1274, 1228, 1321, 1370, 1366, 1320
 951, 1231, 1267, 1266, 1230, 1323, 1359, 1358, 1322
 952, 1232, 1268, 1267, 1231, 1324, 1360, 1359, 1323
 953, 1233, 1269, 1268, 1232, 1325, 1361, 1360, 1324
 954, 1234, 1270, 1269, 1233, 1326, 1362, 1361, 1325
 955, 1235, 1271, 1270, 1234, 1327, 1363, 1362, 1326
 956, 1236, 1272, 1271, 1235, 1328, 1364, 1363, 1327
 957, 1237, 1273, 1272, 1236, 1329, 1365, 1364, 1328
 958, 1278, 1229, 1230, 1266, 1370, 1321, 1322, 1358
 959, 1279, 1275, 1265, 1273, 1371, 1367, 1357, 1365
 960, 1252, 1224, 1223, 1277, 1344, 1316, 1315, 1369
 961, 1251, 1281, 1288, 1255, 1343, 1373, 1380, 1347
 962, 1225, 1205, 1242, 1287, 1317, 1297, 1334, 1379
 963, 1226, 1208, 1241, 1283, 1318, 1300, 1333, 1375
 964, 1198, 1285, 1246, 1197, 1290, 1377, 1338, 1289
 965, 1286, 1244, 1253, 1245, 1378, 1336, 1345, 1337
 966, 1242, 1247, 1241, 1287, 1334, 1339, 1333, 1379
 967, 1337, 1292, 1293, 1378, 1429, 1384, 1385, 1470
 968, 1290, 1291, 1376, 1377, 1382, 1383, 1468, 1469
 969, 1291, 1292, 1337, 1376, 1383, 1384, 1429, 1468
 970, 1340, 1338, 1337, 1345, 1432, 1430, 1429, 1437
 971, 1294, 1340, 1346, 1303, 1386, 1432, 1438, 1395
 972, 1296, 1335, 1334, 1297, 1388, 1427, 1426, 1389
 973, 1374, 1299, 1298, 1342, 1466, 1391, 1390, 1434
 974, 1301, 1318, 1375, 1341, 1393, 1410, 1467, 1433
 975, 1303, 1346, 1349, 1304, 1395, 1438, 1441, 1396
 976, 1304, 1349, 1350, 1305, 1396, 1441, 1442, 1397
 977, 1305, 1350, 1351, 1306, 1397, 1442, 1443, 1398
 978, 1306, 1351, 1352, 1307, 1398, 1443, 1444, 1399
 979, 1307, 1352, 1353, 1308, 1399, 1444, 1445, 1400
 980, 1308, 1353, 1354, 1309, 1400, 1445, 1446, 1401
 981, 1309, 1354, 1355, 1310, 1401, 1446, 1447, 1402
 982, 1310, 1355, 1356, 1311, 1402, 1447, 1448, 1403
 983, 1311, 1356, 1357, 1312, 1403, 1448, 1449, 1404
 984, 1312, 1357, 1367, 1313, 1404, 1449, 1459, 1405
 985, 1313, 1367, 1368, 1314, 1405, 1459, 1460, 1406
 986, 1314, 1368, 1369, 1315, 1406, 1460, 1461, 1407
 987, 1334, 1335, 1373, 1339, 1426, 1427, 1465, 1431
 988, 1333, 1300, 1299, 1374, 1425, 1392, 1391, 1466
 989, 1343, 1302, 1301, 1341, 1435, 1394, 1393, 1433
 990, 1345, 1336, 1348, 1366, 1437, 1428, 1440, 1458
 991, 1346, 1366, 1370, 1349, 1438, 1458, 1462, 1441
 992, 1349, 1370, 1358, 1350, 1441, 1462, 1450, 1442
 993, 1350, 1358, 1359, 1351, 1442, 1450, 1451, 1443
 994, 1351, 1359, 1360, 1352, 1443, 1451, 1452, 1444
 995, 1352, 1360, 1361, 1353, 1444, 1452, 1453, 1445
 996, 1353, 1361, 1362, 1354, 1445, 1453, 1454, 1446
 997, 1354, 1362, 1363, 1355, 1446, 1454, 1455, 1447
 998, 1355, 1363, 1364, 1356, 1447, 1455, 1456, 1448
 999, 1356, 1364, 1365, 1357, 1448, 1456, 1457, 1449
1000, 1330, 1371, 1365, 1329, 1422, 1463, 1457, 1421
1001, 1367, 1371, 1372, 1368, 1459, 1463, 1464, 1460
1002, 1344, 1369, 1347, 1380, 1436, 1461, 1439, 1472
1003, 1298, 1317, 1379, 1342, 1390, 1409, 1471, 1434
1004, 1316, 1344, 1335, 1296, 1408, 1436, 1427, 1388
1005, 1338, 1377, 1376, 1337, 1430, 1469, 1468, 1429
1006, 1378, 1293, 1295, 1336, 1470, 1385, 1387, 1428
1007, 1340, 1294, 1289, 1338, 1432, 1386, 1381, 1430
1008, 1375, 1333, 1339, 1341, 1467, 1425, 1431, 1433
1009, 1339, 1373, 1343, 1341, 1431, 1465, 1435, 1433
1010, 1366, 1346, 1340, 1345, 1458, 1438, 1432, 1437
1011, 1347, 1332, 1302, 1343, 1439, 1424, 1394, 1435
1012, 1374, 1342, 1379, 1333, 1466, 1434, 1471, 1425
1013, 1372, 1331, 1332, 1347, 1464, 1423, 1424, 1439
1014, 1344, 1380, 1373, 1335, 1436, 1472, 1465, 1427
1015, 1319, 1320, 1366, 1348, 1411, 1412, 1458, 1440
1016, 1331, 1372, 1371, 1330, 1423, 1464, 1463, 1422
1017, 1368, 1372, 1347, 1369, 1460, 1464, 1439, 1461
1018, 1348, 1336, 1295, 1319, 1440, 1428, 1387, 1411
1019, 1321, 1370, 1366, 1320, 1413, 1462, 1458, 1412
1020, 1323, 1359, 1358, 1322, 1415, 1451, 1450, 1414
1021, 1324, 1360, 1359, 1323, 1416, 1452, 1451, 1415
1022, 1325, 1361, 1360, 1324, 1417, 1453, 1452, 1416
1023, 1326, 1362, 1361, 1325, 1418, 1454, 1453, 1417
1024, 1327, 1363, 1362, 1326, 1419, 1455, 1454, 1418
1025, 1328, 1364, 1363, 1327, 1420, 1456, 1455, 1419
1026, 1329, 1365, 1364, 1328, 1421, 1457, 1456, 1420
1027, 1370, 1321, 1322, 1358, 1462, 1413, 1414, 1450
1028, 1371, 1367, 1357, 1365, 1463, 1459, 1449, 1457
1029, 1344, 1316, 1315, 1369, 1436, 1408, 1407, 1461
1030, 1343, 1373, 1380, 1347, 1435, 1465, 1472, 1439
1031, 1317, 1297, 1334, 1379, 1409, 1389, 1426, 1471
1032, 1318, 1300, 1333, 1375, 1410, 1392, 1425, 1467
1033, 1290, 1377, 1338, 1289, 1382, 1469, 1430, 1381
1034, 1378, 1336, 1345, 1337, 1470, 1428, 1437, 1429
1035, 1334, 1339, 1333, 1379, 1426, 1431, 1425, 1471
1036, 1429, 1384, 1385, 1470, 1521, 1476, 1477, 1562
1037, 1382, 1383, 1468, 1469, 1474, 1475, 1560, 1561
1038, 1383, 1384, 1429, 1468, 1475, 1476, 1521, 1560
1039, 1432, 1430, 1429, 1437, 1524, 1522, 1521, 1529
1040, 1386, 1432, 1438, 1395, 1478, 1524, 1530, 1487
1041, 1388, 1427, 1426, 1389, 1480, 1519, 1518, 1481
1042, 1466, 1391, 1390, 1434, 1558, 1483, 1482, 1526
1043, 1393, 1410, 1467, 1433, 1485, 1502, 1559, 1525
1044, 1395, 1438, 1441, 1396, 1487, 1530, 1533, 1488
1045, 1396, 1441, 1442, 1397, 1488, 1533, 1534, 1489
1046, 1397, 1442, 1443, 1398, 1489, 1534, 1535, 1490
1047, 1398, 1443, 1444, 1399, 1490, 1535, 1536, 1491
1048, 1399, 1444, 1445, 1400, 1491, 1536, 1537, 1492
1049, 1400, 1445, 1446, 1401, 1492, 1537, 1538, 1493
1050, 1401, 1446, 1447, 1402, 1493, 1538, 1539, 1494
1051, 1402, 1447, 1448, 1403, 1494, 1539, 1540, 1495
1052, 1403, 1448, 1449, 1404, 1495, 1540, 1541, 1496
1053, 1404, 1449, 1459, 1405, 1496, 1541, 1551, 1497
1054, 1405, 1459, 1460, 1406, 1497, 1551, 1552, 1498
1055, 1406, 1460, 1461, 1407, 1498, 1552, 1553, 1499
1056, 1426, 1427, 1465, 1431, 1518, 1519, 1557, 1523
1057, 1425, 1392, 1391, 1466, 1517, 1484, 1483, 1558
1058, 1435, 1394, 1393, 1433, 1527, 1486, 1485, 1525
1059, 1437, 1428, 1440, 1458, 1529, 1520, 1532, 1550
1060, 1438, 1458, 1462, 1441, 1530, 1550, 1554, 1533
1061, 1441, 1462, 1450, 1442, 1533, 1554, 1542, 1534
1062, 1442, 1450, 1451, 1443, 1534, 1542, 1543, 1535
1063, 1443, 1451, 1452, 1444, 1535, 1543, 1544, 1536
1064, 1444, 1452, 1453, 1445, 1536, 1544, 1545, 1537
1065, 1445, 1453, 1454, 1446, 1537, 1545, 1546, 1538
1066, 1446, 1454, 1455, 1447, 1538, 1546, 1547, 1539
1067, 1447, 1455, 1456, 1448, 1539, 1547, 1548, 1540
1068, 1448, 1456, 1457, 1449, 1540, 1548, 1549, 1541
1069, 1422, 1463, 1457, 1421, 1514, 1555, 1549, 1513
1070, 1459, 1463, 1464, 1460, 1551, 1555, 1556, 1552
1071, 1436, 1461, 1439, 1472, 1528, 1553, 1531, 1564
1072, 1390, 1409, 1471, 1434, 1482, 1501, 1563, 1526
1073, 1408, 1436, 1427, 1388, 1500, 1528, 1519, 1480
1074, 1430, 1469, 1468, 1429, 1522, 1561, 1560, 1521
1075, 1470, 1385, 1387, 1428, 1562, 1477, 1479, 1520
1076, 1432, 1386, 1381, 1430, 1524, 1478, 1473, 1522
1077, 1467, 1425, 1431, 1433, 1559, 1517, 1523, 1525
1078, 1431, 1465, 1435, 1433, 1523, 1557, 1527, 1525
1079, 1458, 1438, 1432, 1437, 1550, 1530, 1524, 1529
1080, 1439, 1424, 1394, 1435, 1531, 1516, 1486, 1527
1081, 1466, 1434, 1471, 1425, 1558, 1526, 1563, 1517
1082, 1464, 1423, 1424, 1439, 1556, 1515, 1516, 1531
1083, 1436, 1472, 1465, 1427, 1528, 1564, 1557, 1519
1084, 1411, 1412, 1458, 1440, 1503, 1504, 1550, 1532
1085, 1423, 1464, 1463, 1422, 1515, 1556, 1555, 1514
1086, 1460, 1464, 1439, 1461, 1552, 1556, 1531, 1553
1087, 1440, 1428, 1387, 1411, 1532, 1520, 1479, 1503
1088, 1413, 1462, 1458, 1412, 1505, 1554, 1550, 1504
1089, 1415, 1451, 1450, 1414, 1507, 1543, 1542, 1506
1090, 1416, 1452, 1451, 1415, 1508, 1544, 1543, 1507
1091, 1417, 1453, 1452, 1416, 1509, 1545, 1544, 1508
1092, 1418, 1454, 1453, 1417, 1510, 1546, 1545, 1509
1093, 1419, 1455, 1454, 1418, 1511, 1547, 1546, 1510
1094, 1420, 1456, 1455, 1419, 1512, 1548, 1547, 1511
1095, 1421, 1457, 1456, 1420, 1513, 1549, 1548, 1512
1096, 1462, 1413, 1414, 1450, 1554, 1505, 1506, 1542
1097, 1463, 1459, 1449, 1457, 1555, 1551, 1541, 1549
1098, 1436, 1408, 1407, 1461, 1528, 1500, 1499, 1553
1099, 1435, 1465, 1472, 1439, 1527, 1557, 1564, 1531
1100, 1409, 1389, 1426, 1471, 1501, 1481, 1518, 1563
1101, 1410, 1392, 1425, 1467, 1502, 1484, 1517, 1559
1102, 1382, 1469, 1430, 1381, 1474, 1561, 1522, 1473
1103, 1470, 1428, 1437, 1429, 1562, 1520, 1529, 1521
1104, 1426, 1431, 1425, 1471, 1518, 1523, 1517, 1563
1105, 1521, 1476, 1477, 1562, 1613, 1568, 1569, 1654
1106, 1474, 1475, 1560, 1561, 1566, 1567, 1652, 1653
1107, 1475, 1476, 1521, 1560, 1567, 1568, 1613, 1652
1108, 1524, 1522, 1521, 1529, 1616, 1614, 1613, 1621
1109, 1478, 1524, 1530, 1487, 1570, 1616, 1622, 1579
1110, 1480, 1519, 1518, 1481, 1572, 1611, 1610, 1573
1111, 1558, 1483, 1482, 1526, 1650, 1575, 1574, 1618
1112, 1485, 1502, 1559, 1525, 1577, 1594, 1651, 1617
1113, 1487, 1530, 1533, 1488, 1579, 1622, 1625, 1580
1114, 1488, 1533, 1534, 1489, 1580, 1625, 1626, 1581
1115, 1489, 1534, 1535, 1490, 1581, 1626, 1627, 1582
1116, 1490, 1535, 1536, 1491, 1582, 1627, 1628, 1583
1117, 1491, 1536, 1537, 1492, 1583, 1628, 1629, 1584
1118, 1492, 1537, 1538, 1493, 1584, 1629, 1630, 1585
1119, 1493, 1538, 1539, 1494, 1585, 1630, 1631, 1586
1120, 1494, 1539, 1540, 1495, 1586, 1631, 1632, 1587
1121, 1495, 1540, 1541, 1496, 1587, 1632, 1633, 1588
1122, 1496, 1541, 1551, 1497, 1588, 1633, 1643, 1589
1123, 1497, 1551, 1552, 1498, 1589, 1643, 1644, 1590
1124, 1498, 1552, 1553, 1499, 1590, 1644, 1645, 1591
1125, 1518, 1519, 1557, 1523, 1610, 1611, 1649, 1615
1126, 1517, 1484, 1483, 1558, 1609, 1576, 1575, 1650
1127, 1527, 1486, 1485, 1525, 1619, 1578, 1577, 1617
1128, 1529, 1520, 1532, 1550, 1621, 1612, 1624, 1642
1129, 1530, 1550, 1554, 1533, 1622, 1642, 1646, 1625
1130, 1533, 1554, 1542, 1534, 1625, 1646, 1634, 1626
1131, 1534, 1542, 1543, 1535, 1626, 1634, 1635, 1627
1132, 1535, 1543, 1544, 1536, 1627, 1635, 1636, 1628
1133, 1536, 1544, 1545, 1537, 1628, 1636, 1637, 1629
1134, 1537, 1545, 1546, 1538, 1629, 1637, 1638, 1630
1135, 1538, 1546, 1547, 1539, 1630, 1638, 1639, 1631
1136, 1539, 1547, 1548, 1540, 1631, 1639, 1640, 1632
1137, 1540, 1548, 1549, 1541, 1632, 1640, 1641, 1633
1138, 1514, 1555, 1549, 1513, 1606, 1647, 1641, 1605
1139, 1551, 1555, 1556, 1552, 1643, 1647, 1648, 1644
1140, 1528, 1553, 1531, 1564, 1620, 1645, 1623, 1656
1141, 1482, 1501, 1563, 1526, 1574, 1593, 1655, 1618
1142, 1500, 1528, 1519, 1480, 1592, 1620, 1611, 1572
1143, 1522, 1561, 1560, 1521, 1614, 1653, 1652, 1613
1144, 1562, 1477, 1479, 1520, 1654, 1569, 1571, 1612
1145, 1524, 1478, 1473, 1522, 1616, 1570, 1565, 1614
1146, 1559, 1517, 1523, 1525, 1651, 1609, 1615, 1617
1147, 1523, 1557, 1527, 1525, 1615, 1649, 1619, 1617
1148, 1550, 1530, 1524, 1529, 1642, 1622, 1616, 1621
1149, 1531, 1516, 1486, 1527, 1623, 1608, 1578, 1619
1150, 1558, 1526, 1563, 1517, 1650, 1618, 1655, 1609
1151, 1556, 1515, 1516, 1531, 1648, 1607, 1608, 1623
1152, 1528, 1564, 1557, 1519, 1620, 1656, 1649, 1611
1153, 1503, 1504, 1550, 1532, 1595, 1596, 1642, 1624
1154, 1515, 1556, 1555, 1514, 1607, 1648, 1647, 1606
1155, 1552, 1556, 1531, 1553, 1644, 1648, 1623, 1645
1156, 1532, 1520, 1479, 1503, 1624, 1612, 1571, 1595
1157, 1505, 1554, 1550, 1504, 1597, 1646, 1642, 1596
1158, 1507, 1543, 1542, 1506, 1599, 1635, 1634, 1598
1159, 1508, 1544, 1543, 1507, 1600, 1636, 1635, 1599
1160, 1509, 1545, 1544, 1508, 1601, 1637, 1636, 1600
1161, 1510, 1546, 1545, 1509, 1602, 1638, 1637, 1601
1162, 1511, 1547, 1546, 1510, 1603, 1639, 1638, 1602
1163, 1512, 1548, 1547, 1511, 1604, 1640, 1639, 1603
1164, 1513, 1549, 1548, 1512, 1605, 1641, 1640, 1604
1165, 1554, 1505, 1506, 1542, 1646, 1597, 1598, 1634
1166, 1555, 1551, 1541, 1549, 1647, 1643, 1633, 1641
1167, 1528, 1500, 1499, 1553, 1620, 1592, 1591, 1645
1168, 1527, 1557, 1564, 1531, 1619, 1649, 1656, 1623
1169, 1501, 1481, 1518, 1563, 1593, 1573, 1610, 1655
1170, 1502, 1484, 1517, 1559, 1594, 1576, 1609, 1651
1171, 1474, 1561, 1522, 1473, 1566, 1653, 1614, 1565
1172, 1562, 1520, 1529, 1521, 1654, 1612, 1621, 1613
1173, 1518, 1523, 1517, 1563, 1610, 1615, 1609, 1655
1174, 1613, 1568, 1569, 1654, 1705, 1660, 1661, 1746
1175, 1566, 1567, 1652, 1653, 1658, 1659, 1744, 1745
1176, 1567, 1568, 1613, 1652, 1659, 1660, 1705, 1744
1177, 1616, 1614, 1613, 1621, 1708, 1706, 1705, 1713
1178, 1570, 1616, 1622, 1579, 1662, 1708, 1714, 1671
1179, 1572, 1611, 1610, 1573, 1664, 1703, 1702, 1665
1180, 1650, 1575, 1574, 1618, 1742, 1667, 1666, 1710
1181, 1577, 1594, 1651, 1617, 1669, 1686, 1743, 1709
1182, 1579, 1622, 1625, 1580, 1671, 1714, 1717, 1672
1183, 1580, 1625, 1626, 1581, 1672, 1717, 1718, 1673
1184, 1581, 1626, 1627, 1582, 1673, 1718, 1719, 1674
1185, 1582, 1627, 1628, 1583, 1674, 1719, 1720, 1675
1186, 1583, 1628, 1629, 1584, 1675, 1720, 1721, 1676
1187, 1584, 1629, 1630, 1585, 1676, 1721, 1722, 1677
1188, 1585, 1630, 1631, 1586, 1677, 1722, 1723, 1678
1189, 1586, 1631, 1632, 1587, 1678, 1723, 1724, 1679
1190, 1587, 1632, 1633, 1588, 1679, 1724, 1725, 1680
1191, 1588, 1633, 1643, 1589, 1680, 1725, 1735, 1681
1192, 1589, 1643, 1644, 1590, 1681, 1735, 1736, 1682
1193, 1590, 1644, 1645, 1591, 1682, 1736, 1737, 1683
1194, 1610, 1611, 1649, 1615, 1702, 1703, 1741, 1707
1195, 1609, 1576, 1575, 1650, 1701, 1668, 1667, 1742
1196, 1619, 1578, 1577, 1617, 1711, 1670, 1669, 1709
1197, 1621, 1612, 1624, 1642, 1713, 1704, 1716, 1734
1198, 1622, 1642, 1646, 1625, 1714, 1734, 1738, 1717
1199, 1625, 1646, 1634, 1626, 1717, 1738, 1726, 1718
1200, 1626, 1634, 1635, 1627, 1718, 1726, 1727, 1719
1201, 1627, 1635, 1636, 1628, 1719, 1727, 1728, 1720
1202, 1628, 1636, 1637, 1629, 1720, 1728, 1729, 1721
1203, 1629, 1637, 1638, 1630, 1721, 1729, 1730, 1722
1204, 1630, 1638, 1639, 1631, 1722, 1730, 1731, 1723
1205, 1631, 1639, 1640, 1632, 1723, 1731, 1732, 1724
1206, 1632, 1640, 1641, 1633, 1724, 1732, 1733, 1725
1207, 1606, 1647, 1641, 1605, 1698, 1739, 1733, 1697
1208, 1643, 1647, 1648, 1644, 1735, 1739, 1740, 1736
1209, 1620, 1645, 1623, 1656, 1712, 1737, 1715, 1748
1210, 1574, 1593, 1655, 1618, 1666, 1685, 1747, 1710
1211, 1592, 1620, 1611, 1572, 1684, 1712, 1703, 1664
1212, 1614, 1653, 1652, 1613, 1706, 1745, 1744, 1705
1213, 1654, 1569, 1571, 1612, 1746, 1661, 1663, 1704
1214, 1616, 1570, 1565, 1614, 1708, 1662, 1657, 1706
1215, 1651, 1609, 1615, 1617, 1743, 1701, 1707, 1709
1216, 1615, 1649, 1619, 1617, 1707, 1741, 1711, 1709
1217, 1642, 1622, 1616, 1621, 1734, 1714, 1708, 1713
1218, 1623, 1608, 1578, 1619, 1715, 1700, 1670, 1711
1219, 1650, 1618, 1655, 1609, 1742, 1710, 1747, 1701
1220, 1648, 1607, 1608, 1623, 1740, 1699, 1700, 1715
1221, 1620, 1656, 1649, 1611, 1712, 1748, 1741, 1703
1222, 1595, 1596, 1642, 1624, 1687, 1688, 1734, 1716
1223, 1607, 1648, 1647, 1606, 1699, 1740, 1739, 1698
1224, 1644, 1648, 1623, 1645, 1736, 1740, 1715, 1737
1225, 1624, 1612, 1571, 1595, 1716, 1704, 1663, 1687
1226, 1597, 1646, 1642, 1596, 1689, 1738, 1734, 1688
1227, 1599, 1635, 1634, 1598, 1691, 1727, 1726, 1690
1228, 1600, 1636, 1635, 1599, 1692, 1728, 1727, 1691
1229, 1601, 1637, 1636, 1600, 1693, 1729, 1728, 1692
1230, 1602, 1638, 1637, 1601, 1694, 1730, 1729, 1693
1231, 1603, 1639, 1638, 1602, 1695, 1731, 1730, 1694
1232, 1604, 1640, 1639, 1603, 1696, 1732, 1731, 1695
1233, 1605, 1641, 1640, 1604, 1697, 1733, 1732, 1696
1234, 1646, 1597, 1598, 1634, 1738, 1689, 1690, 1726
1235, 1647, 1643, 1633, 1641, 1739, 1735, 1725, 1733
1236, 1620, 1592, 1591, 1645, 1712, 1684, 1683, 1737
1237, 1619, 1649, 1656, 1623, 1711, 1741, 1748, 1715
1238, 1593, 1573, 1610, 1655, 1685, 1665, 1702, 1747
1239, 1594, 1576, 1609, 1651, 1686, 1668, 1701, 1743
1240, 1566, 1653, 1614, 1565, 1658, 1745, 1706, 1657
1241, 1654, 1612, 1621, 1613, 1746, 1704, 1713, 1705
1242, 1610, 1615, 1609, 1655, 1702, 1707, 1701, 1747
1243, 1705, 1660, 1661, 1746, 1797, 1752, 1753, 1838
1244, 1658, 1659, 1744, 1745, 1750, 1751, 1836, 1837
1245, 1659, 1660, 1705, 1744, 1751, 1752, 1797, 1836
1246, 1708, 1706, 1705, 1713, 1800, 1798, 1797, 1805
1247, 1662, 1708, 1714, 1671, 1754, 1800, 1806, 1763
1248, 1664, 1703, 1702, 1665, 1756, 1795, 1794, 1757
1249, 1742, 1667, 1666, 1710, 1834, 1759, 1758, 1802
1250, 1669, 1686, 1743, 1709, 1761, 1778, 1835, 1801
1251, 1671, 1714, 1717, 1672, 1763, 1806, 1809, 1764
1252, 1672, 1717, 1718, 1673, 1764, 1809, 1810, 1765
1253, 1673, 1718, 1719, 1674, 1765, 1810, 1811, 1766
1254, 1674, 1719, 1720, 1675, 1766, 1811, 1812, 1767
1255, 1675, 1720, 1721, 1676, 1767, 1812, 1813, 1768
1256, 1676, 1721, 1722, 1677, 1768, 1813, 1814, 1769
1257, 1677, 1722, 1723, 1678, 1769, 1814, 1815, 1770
1258, 1678, 1723, 1724, 1679, 1770, 1815, 1816, 1771
1259, 1679, 1724, 1725, 1680, 1771, 1816, 1817, 1772
1260, 1680, 1725, 1735, 1681, 1772, 1817, 1827, 1773
1261, 1681, 1735, 1736, 1682, 1773, 1827, 1828, 1774
1262, 1682, 1736, 1737, 1683, 1774, 1828, 1829, 1775
1263, 1702, 1703, 1741, 1707, 1794, 1795, 1833, 1799
1264, 1701, 1668, 1667, 1742, 1793, 1760, 1759, 1834
1265, 1711, 1670, 1669, 1709, 1803, 1762, 1761, 1801
1266, 1713, 1704, 1716, 1734, 1805, 1796, 1808, 1826
1267, 1714, 1734, 1738, 1717, 1806, 1826, 1830, 1809
1268, 1717, 1738, 1726, 1718, 1809, 1830, 1818, 1810
1269, 1718, 1726, 1727, 1719, 1810, 1818, 1819, 1811
1270, 1719, 1727, 1728, 1720, 1811, 1819, 1820, 1812
1271, 1720, 1728, 1729, 1721, 1812, 1820, 1821, 1813
1272, 1721, 1729, 1730, 1722, 1813, 1821, 1822, 1814
1273, 1722, 1730, 1731, 1723, 1814, 1822, 1823, 1815
1274, 1723, 1731, 1732, 1724, 1815, 1823, 1824, 1816
1275, 1724, 1732, 1733, 1725, 1816, 1824, 1825, 1817
1276, 1698, 1739, 1733, 1697, 1790, 1831, 1825, 1789
1277, 1735, 1739, 1740, 1736, 1827, 1831, 1832, 1828
1278, 1712, 1737, 1715, 1748, 1804, 1829, 1807, 1840
1279, 1666, 1685, 1747, 1710, 1758, 1777, 1839, 1802
1280, 1684, 1712, 1703, 1664, 1776, 1804, 1795, 1756
1281, 1706, 1745, 1744, 1705, 1798, 1837, 1836, 1797
1282, 1746, 1661, 1663, 1704, 1838, 1753, 1755, 1796
1283, 1708, 1662, 1657, 1706, 1800, 1754, 1749, 1798
1284, 1743, 1701, 1707, 1709, 1835, 1793, 1799, 1801
1285, 1707, 1741, 1711, 1709, 1799, 1833, 1803, 1801
1286, 1734, 1714, 1708, 1713, 1826, 1806, 1800, 1805
1287, 1715, 1700, 1670, 1711, 1807, 1792, 1762, 1803
1288, 1742, 1710, 1747, 1701, 1834, 1802, 1839, 1793
1289, 1740, 1699, 1700, 1715, 1832, 1791, 1792, 1807
1290, 1712, 1748, 1741, 1703, 1804, 1840, 1833, 1795
1291, 1687, 1688, 1734, 1716, 1779, 1780, 1826, 1808
1292, 1699, 1740, 1739, 1698, 1791, 1832, 1831, 1790
1293, 1736, 1740, 1715, 1737, 1828, 1832, 1807, 1829
1294, 1716, 1704, 1663, 1687, 1808, 1796, 1755, 1779
1295, 1689, 1738, 1734, 1688, 1781, 1830, 1826, 1780
1296, 1691, 1727, 1726, 1690, 1783, 1819, 1818, 1782
1297, 1692, 1728, 1727, 1691, 1784, 1820, 1819, 1783
1298, 1693, 1729, 1728, 1692, 1785, 1821, 1820, 1784
1299, 1694, 1730, 1729, 1693, 1786, 1822, 1821, 1785
1300, 1695, 1731, 1730, 1694, 1787, 1823, 1822, 1786
1301, 1696, 1732, 1731, 1695, 1788, 1824, 1823, 1787
1302, 1697, 1733, 1732, 1696, 1789, 1825, 1824, 1788
1303, 1738, 1689, 1690, 1726, 1830, 1781, 1782, 1818
1304, 1739, 1735, 1725, 1733, 1831, 1827, 1817, 1825
1305, 1712, 1684, 1683, 1737, 1804, 1776, 1775, 1829
1306, 1711, 1741, 1748, 1715, 1803, 1833, 1840, 1807
1307, 1685, 1665, 1702, 1747, 1777, 1757, 1794, 1839
1308, 1686, 1668, 1701, 1743, 1778, 1760, 1793, 1835
1309, 1658, 1745, 1706, 1657, 1750, 1837, 1798, 1749
1310, 1746, 1704, 1713, 1705, 1838, 1796, 1805, 1797
1311, 1702, 1707, 1701, 1747, 1794, 1799, 1793, 1839
1312, 1797, 1752, 1753, 1838, 1889, 1844, 1845, 1930
1313, 1750, 1751, 1836, 1837, 1842, 1843, 1928, 1929
1314, 1751, 1752, 1797, 1836, 1843, 1844, 1889, 1928
1315, 1800, 1798, 1797, 1805, 1892, 1890, 1889, 1897
1316, 1754, 1800, 1806, 1763, 1846, 1892, 1898, 1855
1317, 1756, 1795, 1794, 1757, 1848, 1887, 1886, 1849
1318, 1834, 1759, 1758, 1802, 1926, 1851, 1850, 1894
1319, 1761, 1778, 1835, 1801, 1853, 1870, 1927, 1893
1320, 1763, 1806, 1809, 1764, 1855, 1898, 1901, 1856
1321, 1764, 1809, 1810, 1765, 1856, 1901, 1902, 1857
1322, 1765, 1810, 1811, 1766, 1857, 1902, 1903, 1858
1323, 1766, 1811, 1812, 1767, 1858, 1903, 1904, 1859
1324, 1767, 1812, 1813, 1768, 1859, 1904, 1905, 1860
1325, 1768, 1813, 1814, 1769, 1860, 1905, 1906, 1861
1326, 1769, 1814, 1815, 1770, 1861, 1906, 1907, 1862
1327, 1770, 1815, 1816, 1771, 1862, 1907, 1908, 1863
1328, 1771, 1816, 1817, 1772, 1863, 1908, 1909, 1864
1329, 1772, 1817, 1827, 1773, 1864, 1909, 1919, 1865
1330, 1773, 1827, 1828, 1774, 1865, 1919, 1920, 1866
1331, 1774, 1828, 1829, 1775, 1866, 1920, 1921, 1867
1332, 1794, 1795, 1833, 1799, 1886, 1887, 1925, 1891
1333, 1793, 1760, 1759, 1834, 1885, 1852, 1851, 1926
1334, 1803, 1762, 1761, 1801, 1895, 1854, 1853, 1893
1335, 1805, 1796, 1808, 1826, 1897, 1888, 1900, 1918
1336, 1806, 1826, 1830, 1809, 1898, 1918, 1922, 1901
1337, 1809, 1830, 1818, 1810, 1901, 1922, 1910, 1902
1338, 1810, 1818, 1819, 1811, 1902, 1910, 1911, 1903
1339, 1811, 1819, 1820, 1812, 1903, 1911, 1912, 1904
1340, 1812, 1820, 1821, 1813, 1904, 1912, 1913, 1905
1341, 1813, 1821, 1822, 1814, 1905, 1913, 1914, 1906
1342, 1814, 1822, 1823, 1815, 1906, 1914, 1915, 1907
1343, 1815, 1823, 1824, 1816, 1907, 1915, 1916, 1908
1344, 1816, 1824, 1825, 1817, 1908, 1916, 1917, 1909
1345, 1790, 1831, 1825, 1789, 1882, 1923, 1917, 1881
1346, 1827, 1831, 1832, 1828, 1919, 1923, 1924, 1920
1347, 1804, 1829, 1807, 1840, 1896, 1921, 1899, 1932
1348, 1758, 1777, 1839, 1802, 1850, 1869, 1931, 1894
1349, 1776, 1804, 1795, 1756, 1868, 1896, 1887, 1848
1350, 1798, 1837, 1836, 1797, 1890, 1929, 1928, 1889
1351, 1838, 1753, 1755, 1796, 1930, 1845, 1847, 1888
1352, 1800, 1754, 1749, 1798, 1892, 1846, 1841, 1890
1353, 1835, 1793, 1799, 1801, 1927, 1885, 1891, 1893
1354, 1799, 1833, 1803, 1801, 1891, 1925, 1895, 1893
1355, 1826, 1806, 1800, 1805, 1918, 1898, 1892, 1897
1356, 1807, 1792, 1762, 1803, 1899, 1884, 1854, 1895
1357, 1834, 1802, 1839, 1793, 1926, 1894, 1931, 1885
1358, 1832, 1791, 1792, 1807, 1924, 1883, 1884, 1899
1359, 1804, 1840, 1833, 1795, 1896, 1932, 1925, 1887
1360, 1779, 1780, 1826, 1808, 1871, 1872, 1918, 1900
1361, 1791, 1832, 1831, 1790, 1883, 1924, 1923, 1882
1362, 1828, 1832, 1807, 1829, 1920, 1924, 1899, 1921
1363, 1808, 1796, 1755, 1779, 1900, 1888, 1847, 1871
1364, 1781, 1830, 1826, 1780, 1873, 1922, 1918, 1872
1365, 1783, 1819, 1818, 1782, 1875, 1911, 1910, 1874
1366, 1784, 1820, 1819, 1783, 1876, 1912, 1911, 1875
1367, 1785, 1821, 1820, 1784, 1877, 1913, 1912, 1876
1368, 1786, 1822, 1821, 1785, 1878, 1914, 1913, 1877
1369, 1787, 1823, 1822, 1786, 1879, 1915, 1914, 1878
1370, 1788, 1824, 1823, 1787, 1880, 1916, 1915, 1879
1371, 1789, 1825, 1824, 1788, 1881, 1917, 1916, 1880
1372, 1830, 1781, 1782, 1818, 1922, 1873, 1874, 1910
1373, 1831, 1827, 1817, 1825, 1923, 1919, 1909, 1917
1374, 1804, 1776, 1775, 1829, 1896, 1868, 1867, 1921
1375, 1803, 1833, 1840, 1807, 1895, 1925, 1932, 1899
1376, 1777, 1757, 1794, 1839, 1869, 1849, 1886, 1931
1377, 1778, 1760, 1793, 1835, 1870, 1852, 1885, 1927
1378, 1750, 1837, 1798, 1749, 1842, 1929, 1890, 1841
1379, 1838, 1796, 1805, 1797, 1930, 1888, 1897, 1889
1380, 1794, 1799, 1793, 1839, 1886, 1891, 1885, 1931
1381, 1889, 1844, 1845, 1930, 1981, 1936, 1937, 2022
1382, 1842, 1843, 1928, 1929, 1934, 1935, 2020, 2021
1383, 1843, 1844, 1889, 1928, 1935, 1936, 1981, 2020
1384, 1892, 1890, 1889, 1897, 1984, 1982, 1981, 1989
1385, 1846, 1892, 1898, 1855, 1938, 1984, 1990, 1947
1386, 1848, 1887, 1886, 1849, 1940, 1979, 1978, 1941
1387, 1926, 1851, 1850, 1894, 2018, 1943, 1942, 1986
1388, 1853, 1870, 1927, 1893, 1945, 1962, 2019, 1985
1389, 1855, 1898, 1901, 1856, 1947, 1990, 1993, 1948
1390, 1856, 1901, 1902, 1857, 1948, 1993, 1994, 1949
1391, 1857, 1902, 1903, 1858, 1949, 1994, 1995, 1950
1392, 1858, 1903, 1904, 1859, 1950, 1995, 1996, 1951
1393, 1859, 1904, 1905, 1860, 1951, 1996, 1997, 1952
1394, 1860, 1905, 1906, 1861, 1952, 1997, 1998, 1953
1395, 1861, 1906, 1907, 1862, 1953, 1998, 1999, 1954
1396, 1862, 1907, 1908, 1863, 1954, 1999, 2000, 1955
1397, 1863, 1908, 1909, 1864, 1955, 2000, 2001, 1956
1398, 1864, 1909, 1919, 1865, 1956, 2001, 2011, 1957
1399, 1865, 1919, 1920, 1866, 1957, 2011, 2012, 1958
1400, 1866, 1920, 1921, 1867, 1958, 2012, 2013, 1959
1401, 1886, 1887, 1925, 1891, 1978, 1979, 2017, 1983
1402, 1885, 1852, 1851, 1926, 1977, 1944, 1943, 2018
1403, 1895, 1854, 1853, 1893, 1987, 1946, 1945, 1985
1404, 1897, 1888, 1900, 1918, 1989, 1980, 1992, 2010
1405, 1898, 1918, 1922, 1901, 1990, 2010, 2014, 1993
1406, 1901, 1922, 1910, 1902, 1993, 2014, 2002, 1994
1407, 1902, 1910, 1911, 1903, 1994, 2002, 2003, 1995
1408, 1903, 1911, 1912, 1904, 1995, 2003, 2004, 1996
1409, 1904, 1912, 1913, 1905, 1996, 2004, 2005, 1997
1410, 1905, 1913, 1914, 1906, 1997, 2005, 2006, 1998
1411, 1906, 1914, 1915, 1907, 1998, 2006, 2007, 1999
1412, 1907, 1915, 1916, 1908, 1999, 2007, 2008, 2000
1413, 1908, 1916, 1917, 1909, 2000, 2008, 2009, 2001
1414, 1882, 1923, 1917, 1881, 1974, 2015, 2009, 1973
1415, 1919, 1923, 1924, 1920, 2011, 2015, 2016, 2012
1416, 1896, 1921, 1899, 1932, 1988, 2013, 1991, 2024
1417, 1850, 1869, 1931, 1894, 1942, 1961, 2023, 1986
1418, 1868, 1896, 1887, 1848, 1960, 1988, 1979, 1940
1419, 1890, 1929, 1928, 1889, 1982, 2021, 2020, 1981
1420, 1930, 1845, 1847, 1888, 2022, 1937, 1939, 1980
1421, 1892, 1846, 1841, 1890, 1984, 1938, 1933, 1982
1422, 1927, 1885, 1891, 1893, 2019, 1977, 1983, 1985
1423, 1891, 1925, 1895, 1893, 1983, 2017, 1987, 1985
1424, 1918, 1898, 1892, 1897, 2010, 1990, 1984, 1989
1425, 1899, 1884, 1854, 1895, 1991, 1976, 1946, 1987
1426, 1926, 1894, 1931, 1885, 2018, 1986, 2023, 1977
1427, 1924, 1883, 1884, 1899, 2016, 1975, 1976, 1991
1428, 1896, 1932, 1925, 1887, 1988, 2024, 2017, 1979
1429, 1871, 1872, 1918, 1900, 1963, 1964, 2010, 1992
1430, 1883, 1924, 1923, 1882, 1975, 2016, 2015, 1974
1431, 1920, 1924, 1899, 1921, 2012, 2016, 1991, 2013
1432, 1900, 1888, 1847, 1871, 1992, 1980, 1939, 1963
1433, 1873, 1922, 1918, 1872, 1965, 2014, 2010, 1964
1434, 1875, 1911, 1910, 1874, 1967, 2003, 2002, 1966
1435, 1876, 1912, 1911, 1875, 1968, 2004, 2003, 1967
1436, 1877, 1913, 1912, 1876, 1969, 2005, 2004, 1968
1437, 1878, 1914, 1913, 1877, 1970, 2006, 2005, 1969
1438, 1879, 1915, 1914, 1878, 1971, 2007, 2006, 1970
1439, 1880, 1916, 1915, 1879, 1972, 2008, 2007, 1971
1440, 1881, 1917, 1916, 1880, 1973, 2009, 2008, 1972
1441, 1922, 1873, 1874, 1910, 2014, 1965, 1966, 2002
1442, 1923, 1919, 1909, 1917, 2015, 2011, 2001, 2009
1443, 1896, 1868, 1867, 1921, 1988, 1960, 1959, 2013
1444, 1895, 1925, 1932, 1899, 1987, 2017, 2024, 1991
1445, 1869, 1849, 1886, 1931, 1961, 1941, 1978, 2023
1446, 1870, 1852, 1885, 1927, 1962, 1944, 1977, 2019
1447, 1842, 1929, 1890, 1841, 1934, 2021, 1982, 1933
1448, 1930, 1888, 1897, 1889, 2022, 1980, 1989, 1981
1449, 1886, 1891, 1885, 1931, 1978, 1983, 1977, 2023
1450, 1981, 1936, 1937, 2022, 2073, 2028, 2029, 2114
1451, 1934, 1935, 2020, 2021, 2026, 2027, 2112, 2113
1452, 1935, 1936, 1981, 2020, 2027, 2028, 2073, 2112
1453, 1984, 1982, 1981, 1989, 2076, 2074, 2073, 2081
1454, 1938, 1984, 1990, 1947, 2030, 2076, 2082, 2039
1455, 1940, 1979, 1978, 1941, 2032, 2071, 2070, 2033
1456, 2018, 1943, 1942, 1986, 2110, 2035, 2034, 2078
1457, 1945, 1962, 2019, 1985, 2037, 2054, 2111, 2077
1458, 1947, 1990, 1993, 1948, 2039, 2082, 2085, 2040
1459, 1948, 1993, 1994, 1949, 2040, 2085, 2086, 2041
1460, 1949, 1994, 1995, 1950, 2041, 2086, 2087, 2042
1461, 1950, 1995, 1996, 1951, 2042, 2087, 2088, 2043
1462, 1951, 1996, 1997, 1952, 2043, 2088, 2089, 2044
1463, 1952, 1997, 1998, 1953, 2044, 2089, 2090, 2045
1464, 1953, 1998, 1999, 1954, 2045, 2090, 2091, 2046
1465, 1954, 1999, 2000, 1955, 2046, 2091, 2092, 2047
1466, 1955, 2000, 2001, 1956, 2047, 2092, 2093, 2048
1467, 1956, 2001, 2011, 1957, 2048, 2093, 2103, 2049
1468, 1957, 2011, 2012, 1958, 2049, 2103, 2104, 2050
1469, 1958, 2012, 2013, 1959, 2050, 2104, 2105, 2051
1470, 1978, 1979, 2017, 1983, 2070, 2071, 2109, 2075
1471, 1977, 1944, 1943, 2018, 2069, 2036, 2035, 2110
1472, 1987, 1946, 1945, 1985, 2079, 2038, 2037, 2077
1473, 1989, 1980, 1992, 2010, 2081, 2072, 2084, 2102
1474, 1990, 2010, 2014, 1993, 2082, 2102, 2106, 2085
1475, 1993, 2014, 2002, 1994, 2085, 2106, 2094, 2086
1476, 1994, 2002, 2003, 1995, 2086, 2094, 2095, 2087
1477, 1995, 2003, 2004, 1996, 2087, 2095, 2096, 2088
1478, 1996, 2004, 2005, 1997, 2088, 2096, 2097, 2089
1479, 1997, 2005, 2006, 1998, 2089, 2097, 2098, 2090
1480, 1998, 2006, 2007, 1999, 2090, 2098, 2099, 2091
1481, 1999, 2007, 2008, 2000, 2091, 2099, 2100, 2092
1482, 2000, 2008, 2009, 2001, 2092, 2100, 2101, 2093
1483, 1974, 2015, 2009, 1973, 2066, 2107, 2101, 2065
1484, 2011, 2015, 2016, 2012, 2103, 2107, 2108, 2104
1485, 1988, 2013, 1991, 2024, 2080, 2105, 2083, 2116
1486, 1942, 1961, 2023, 1986, 2034, 2053, 2115, 2078
1487, 1960, 1988, 1979, 1940, 2052, 2080, 2071, 2032
1488, 1982, 2021, 2020, 1981, 2074, 2113, 2112, 2073
1489, 2022, 1937, 1939, 1980, 2114, 2029, 2031, 2072
1490, 1984, 1938, 1933, 1982, 2076, 2030, 2025, 2074
1491, 2019, 1977, 1983, 1985, 2111, 2069, 2075, 2077
1492, 1983, 2017, 1987, 1985, 2075, 2109, 2079, 2077
1493, 2010, 1990, 1984, 1989, 2102, 2082, 2076, 2081
1494, 1991, 1976, 1946, 1987, 2083, 2068, 2038, 2079
1495, 2018, 1986, 2023, 1977, 2110, 2078, 2115, 2069
1496, 2016, 1975, 1976, 1991, 2108, 2067, 2068, 2083
1497, 1988, 2024, 2017, 1979, 2080, 2116, 2109, 2071
1498, 1963, 1964, 2010, 1992, 2055, 2056, 2102, 2084
1499, 1975, 2016, 2015, 1974, 2067, 2108, 2107, 2066
1500, 2012, 2016, 1991, 2013, 2104, 2108, 2083, 2105
1501, 1992, 1980, 1939, 1963, 2084, 2072, 2031, 2055
1502, 1965, 2014, 2010, 1964, 2057, 2106, 2102, 2056
1503, 1967, 2003, 2002, 1966, 2059, 2095, 2094, 2058
1504, 1968, 2004, 2003, 1967, 2060, 2096, 2095, 2059
1505, 1969, 2005, 2004, 1968, 2061, 2097, 2096, 2060
1506, 1970, 2006, 2005, 1969, 2062, 2098, 2097, 2061
1507, 1971, 2007, 2006, 1970, 2063, 2099, 2098, 2062
1508, 1972, 2008, 2007, 1971, 2064, 2100, 2099, 2063
1509, 1973, 2009, 2008, 1972, 2065, 2101, 2100, 2064
1510, 2014, 1965, 1966, 2002, 2106, 2057, 2058, 2094
1511, 2015, 2011, 2001, 2009, 2107, 2103, 2093, 2101
1512, 1988, 1960, 1959, 2013, 2080, 2052, 2051, 2105
1513, 1987, 2017, 2024, 1991, 2079, 2109, 2116, 2083
1514, 1961, 1941, 1978, 2023, 2053, 2033, 2070, 2115
1515, 1962, 1944, 1977, 2019, 2054, 2036, 2069, 2111
1516, 1934, 2021, 1982, 1933, 2026, 2113, 2074, 2025
1517, 2022, 1980, 1989, 1981, 2114, 2072, 2081, 2073
1518, 1978, 1983, 1977, 2023, 2070, 2075, 2069, 2115
1519, 2073, 2028, 2029, 2114, 2165, 2120, 2121, 2206
1520, 2026, 2027, 2112, 2113, 2118, 2119, 2204, 2205
1521, 2027, 2028, 2073, 2112, 2119, 2120, 2165, 2204
1522, 2076, 2074, 2073, 2081, 2168, 2166, 2165, 2173
1523, 2030, 2076, 2082, 2039, 2122, 2168, 2174, 2131
1524, 2032, 2071, 2070, 2033, 2124, 2163, 2162, 2125
1525, 2110, 2035, 2034, 2078, 2202, 2127, 2126, 2170
1526, 2037, 2054, 2111, 2077, 2129, 2146, 2203, 2169
1527, 2039, 2082, 2085, 2040, 2131, 2174, 2177, 2132
1528, 2040, 2085, 2086, 2041, 2132, 2177, 2178, 2133
1529, 2041, 2086, 2087, 2042, 2133, 2178, 2179, 2134
1530, 2042, 2087, 2088, 2043, 2134, 2179, 2180, 2135
1531, 2043, 2088, 2089, 2044, 2135, 2180, 2181, 2136
1532, 2044, 2089, 2090, 2045, 2136, 2181, 2182, 2137
1533, 2045, 2090, 2091, 2046, 2137, 2182, 2183, 2138
1534, 2046, 2091, 2092, 2047, 2138, 2183, 2184, 2139
1535, 2047, 2092, 2093, 2048, 2139, 2184, 2185, 2140
1536, 2048, 2093, 2103, 2049, 2140, 2185, 2195, 2141
1537, 2049, 2103, 2104, 2050, 2141, 2195, 2196, 2142
1538, 2050, 2104, 2105, 2051, 2142, 2196, 2197, 2143
1539, 2070, 2071, 2109, 2075, 2162, 2163, 2201, 2167
1540, 2069, 2036, 2035, 2110, 2161, 2128, 2127, 2202
1541, 2079, 2038, 2037, 2077, 2171, 2130, 2129, 2169
1542, 2081, 2072, 2084, 2102, 2173, 2164, 2176, 2194
1543, 2082, 2102, 2106, 2085, 2174, 2194, 2198, 2177
1544, 2085, 2106, 2094, 2086, 2177, 2198, 2186, 2178
1545, 2086, 2094, 2095, 2087, 2178, 2186, 2187, 2179
1546, 2087, 2095, 2096, 2088, 2179, 2187, 2188, 2180
1547, 2088, 2096, 2097, 2089, 2180, 2188, 2189, 2181
1548, 2089, 2097, 2098, 2090, 2181, 2189, 2190, 2182
1549, 2090, 2098, 2099, 2091, 2182, 2190, 2191, 2183
1550, 2091, 2099, 2100, 2092, 2183, 2191, 2192, 2184
1551, 2092, 2100, 2101, 2093, 2184, 2192, 2193, 2185
1552, 2066, 2107, 2101, 2065, 2158, 2199, 2193, 2157
1553, 2103, 2107, 2108, 2104, 2195, 2199, 2200, 2196
1554, 2080, 2105, 2083, 2116, 2172, 2197, 2175, 2208
1555, 2034, 2053, 2115, 2078, 2126, 2145, 2207, 2170
1556, 2052, 2080, 2071, 2032, 2144, 2172, 2163, 2124
1557, 2074, 2113, 2112, 2073, 2166, 2205, 2204, 2165
1558, 2114, 2029, 2031, 2072, 2206, 2121, 2123, 2164
1559, 2076, 2030, 2025, 2074, 2168, 2122, 2117, 2166
1560, 2111, 2069, 2075, 2077, 2203, 2161, 2167, 2169
1561, 2075, 2109, 2079, 2077, 2167, 2201, 2171, 2169
1562, 2102, 2082, 2076, 2081, 2194, 2174, 2168, 2173
1563, 2083, 2068, 2038, 2079, 2175, 2160, 2130, 2171
1564, 2110, 2078, 2115, 2069, 2202, 2170, 2207, 2161
1565, 2108, 2067, 2068, 2083, 2200, 2159, 2160, 2175
1566, 2080, 2116, 2109, 2071, 2172, 2208, 2201, 2163
1567, 2055, 2056, 2102, 2084, 2147, 2148, 2194, 2176
1568, 2067, 2108, 2107, 2066, 2159, 2200, 2199, 2158
1569, 2104, 2108, 2083, 2105, 2196, 2200, 2175, 2197
1570, 2084, 2072, 2031, 2055, 2176, 2164, 2123, 2147
1571, 2057, 2106, 2102, 2056, 2149, 2198, 2194, 2148
1572, 2059, 2095, 2094, 2058, 2151, 2187, 2186, 2150
1573, 2060, 2096, 2095, 2059, 2152, 2188, 2187, 2151
1574, 2061, 2097, 2096, 2060, 2153, 2189, 2188, 2152
1575, 2062, 2098, 2097, 2061, 2154, 2190, 2189, 2153
1576, 2063, 2099, 2098, 2062, 2155, 2191, 2190, 2154
1577, 2064, 2100, 2099, 2063, 2156, 2192, 2191, 2155
1578, 2065, 2101, 2100, 2064, 2157, 2193, 2192, 2156
1579, 2106, 2057, 2058, 2094, 2198, 2149, 2150, 2186
1580, 2107, 2103, 2093, 2101, 2199, 2195, 2185, 2193
1581, 2080, 2052, 2051, 2105, 2172, 2144, 2143, 2197
1582, 2079, 2109, 2116, 2083, 2171, 2201, 2208, 2175
1583, 2053, 2033, 2070, 2115, 2145, 2125, 2162, 2207
1584, 2054, 2036, 2069, 2111, 2146, 2128, 2161, 2203
1585, 2026, 2113, 2074, 2025, 2118, 2205, 2166, 2117
1586, 2114, 2072, 2081, 2073, 2206, 2164, 2173, 2165
1587, 2070, 2075, 2069, 2115, 2162, 2167, 2161, 2207
1588, 2165, 2120, 2121, 2206, 2257, 2212, 2213, 2298
1589, 2118, 2119, 2204, 2205, 2210, 2211, 2296, 2297
1590, 2119, 2120, 2165, 2204, 2211, 2212, 2257, 2296
1591, 2168, 2166, 2165, 2173, 2260, 2258, 2257, 2265
1592, 2122, 2168, 2174, 2131, 2214, 2260, 2266, 2223
1593, 2124, 2163, 2162, 2125, 2216, 2255, 2254, 2217
1594, 2202, 2127, 2126, 2170, 2294, 2219, 2218, 2262
1595, 2129, 2146, 2203, 2169, 2221, 2238, 2295, 2261
1596, 2131, 2174, 2177, 2132, 2223, 2266, 2269, 2224
1597, 2132, 2177, 2178, 2133, 2224, 2269, 2270, 2225
1598, 2133, 2178, 2179, 2134, 2225, 2270, 2271, 2226
1599, 2134, 2179, 2180, 2135, 2226, 2271, 2272, 2227
1600, 2135, 2180, 2181, 2136, 2227, 2272, 2273, 2228
1601, 2136, 2181, 2182, 2137, 2228, 2273, 2274, 2229
1602, 2137, 2182, 2183, 2138, 2229, 2274, 2275, 2230
1603, 2138, 2183, 2184, 2139, 2230, 2275, 2276, 2231
1604, 2139, 2184, 2185, 2140, 2231, 2276, 2277, 2232
1605, 2140, 2185, 2195, 2141, 2232, 2277, 2287, 2233
1606, 2141, 2195, 2196, 2142, 2233, 2287, 2288, 2234
1607, 2142, 2196, 2197, 2143, 2234, 2288, 2289, 2235
1608, 2162, 2163, 2201, 2167, 2254, 2255, 2293, 2259
1609, 2161, 2128, 2127, 2202, 2253, 2220, 2219, 2294
1610, 2171, 2130, 2129, 2169, 2263, 2222, 2221, 2261
1611, 2173, 2164, 2176, 2194, 2265, 2256, 2268, 2286
1612, 2174, 2194, 2198, 2177, 2266, 2286, 2290, 2269
1613, 2177, 2198, 2186, 2178, 2269, 2290, 2278, 2270
1614, 2178, 2186, 2187, 2179, 2270, 2278, 2279, 2271
1615, 2179, 2187, 2188, 2180, 2271, 2279, 2280, 2272
1616, 2180, 2188, 2189, 2181, 2272, 2280, 2281, 2273
1617, 2181, 2189, 2190, 2182, 2273, 2281, 2282, 2274
1618, 2182, 2190, 2191, 2183, 2274, 2282, 2283, 2275
1619, 2183, 2191, 2192, 2184, 2275, 2283, 2284, 2276
1620, 2184, 2192, 2193, 2185, 2276, 2284, 2285, 2277
1621, 2158, 2199, 2193, 2157, 2250, 2291, 2285, 2249
1622, 2195, 2199, 2200, 2196, 2287, 2291, 2292, 2288
1623, 2172, 2197, 2175, 2208, 2264, 2289, 2267, 2300
1624, 2126, 2145, 2207, 2170, 2218, 2237, 2299, 2262
1625, 2144, 2172, 2163, 2124, 2236, 2264, 2255, 2216
1626, 2166, 2205, 2204, 2165, 2258, 2297, 2296, 2257
1627, 2206, 2121, 2123, 2164, 2298, 2213, 2215, 2256
1628, 2168, 2122, 2117, 2166, 2260, 2214, 2209, 2258
1629, 2203, 2161, 2167, 2169, 2295, 2253, 2259, 2261
1630, 2167, 2201, 2171, 2169, 2259, 2293, 2263, 2261
1631, 2194, 2174, 2168, 2173, 2286, 2266, 2260, 2265
1632, 2175, 2160, 2130, 2171, 2267, 2252, 2222, 2263
1633, 2202, 2170, 2207, 2161, 2294, 2262, 2299, 2253
1634, 2200, 2159, 2160, 2175, 2292, 2251, 2252, 2267
1635, 2172, 2208, 2201, 2163, 2264, 2300, 2293, 2255
1636, 2147, 2148, 2194, 2176, 2239, 2240, 2286, 2268
1637, 2159, 2200, 2199, 2158, 2251, 2292, 2291, 2250
1638, 2196, 2200, 2175, 2197, 2288, 2292, 2267, 2289
1639, 2176, 2164, 2123, 2147, 2268, 2256, 2215, 2239
1640, 2149, 2198, 2194, 2148, 2241, 2290, 2286, 2240
1641, 2151, 2187, 2186, 2150, 2243, 2279, 2278, 2242
1642, 2152, 2188, 2187, 2151, 2244, 2280, 2279, 2243
1643, 2153, 2189, 2188, 2152, 2245, 2281, 2280, 2244
1644, 2154, 2190, 2189, 2153, 2246, 2282, 2281, 2245
1645, 2155, 2191, 2190, 2154, 2247, 2283, 2282, 2246
1646, 2156, 2192, 2191, 2155, 2248, 2284, 2283, 2247
1647, 2157, 2193, 2192, 2156, 2249, 2285, 2284, 2248
1648, 2198, 2149, 2150, 2186, 2290, 2241, 2242, 2278
1649, 2199, 2195, 2185, 2193, 2291, 2287, 2277, 2285
1650, 2172, 2144, 2143, 2197, 2264, 2236, 2235, 2289
1651, 2171, 2201, 2208, 2175, 2263, 2293, 2300, 2267
1652, 2145, 2125, 2162, 2207, 2237, 2217, 2254, 2299
1653, 2146, 2128, 2161, 2203, 2238, 2220, 2253, 2295
1654, 2118, 2205, 2166, 2117, 2210, 2297, 2258, 2209
1655, 2206, 2164, 2173, 2165, 2298, 2256, 2265, 2257
1656, 2162, 2167, 2161, 2207, 2254, 2259, 2253, 2299
1657, 2257, 2212, 2213, 2298, 2349, 2304, 2305, 2390
1658, 2210, 2211, 2296, 2297, 2302, 2303, 2388, 2389
1659, 2211, 2212, 2257, 2296, 2303, 2304, 2349, 2388
1660, 2260, 2258, 2257, 2265, 2352, 2350, 2349, 2357
1661, 2214, 2260, 2266, 2223, 2306, 2352, 2358, 2315
1662, 2216, 2255, 2254, 2217, 2308, 2347, 2346, 2309
1663, 2294, 2219, 2218, 2262, 2386, 2311, 2310, 2354
1664, 2221, 2238, 2295, 2261, 2313, 2330, 2387, 2353
1665, 2223, 2266, 2269, 2224, 2315, 2358, 2361, 2316
1666, 2224, 2269, 2270, 2225, 2316, 2361, 2362, 2317
1667, 2225, 2270, 2271, 2226, 2317, 2362, 2363, 2318
1668, 2226, 2271, 2272, 2227, 2318, 2363, 2364, 2319
1669, 2227, 2272, 2273, 2228, 2319, 2364, 2365, 2320
1670, 2228, 2273, 2274, 2229, 2320, 2365, 2366, 2321
1671, 2229, 2274, 2275, 2230, 2321, 2366, 2367, 2322
1672, 2230, 2275, 2276, 2231, 2322, 2367, 2368, 2323
1673, 2231, 2276, 2277, 2232, 2323, 2368, 2369, 2324
1674, 2232, 2277, 2287, 2233, 2324, 2369, 2379, 2325
1675, 2233, 2287, 2288, 2234, 2325, 2379, 2380, 2326
1676, 2234, 2288, 2289, 2235, 2326, 2380, 2381, 2327
1677, 2254, 2255, 2293, 2259, 2346, 2347, 2385, 2351
1678, 2253, 2220, 2219, 2294, 2345, 2312, 2311, 2386
1679, 2263, 2222, 2221, 2261, 2355, 2314, 2313, 2353
1680, 2265, 2256, 2268, 2286, 2357, 2348, 2360, 2378
1681, 2266, 2286, 2290, 2269, 2358, 2378, 2382, 2361
1682, 2269, 2290, 2278, 2270, 2361, 2382, 2370, 2362
1683, 2270, 2278, 2279, 2271, 2362, 2370, 2371, 2363
1684, 2271, 2279, 2280, 2272, 2363, 2371, 2372, 2364
1685, 2272, 2280, 2281, 2273, 2364, 2372, 2373, 2365
1686, 2273, 2281, 2282, 2274, 2365, 2373, 2374, 2366
1687, 2274, 2282, 2283, 2275, 2366, 2374, 2375, 2367
1688, 2275, 2283, 2284, 2276, 2367, 2375, 2376, 2368
1689, 2276, 2284, 2285, 2277, 2368, 2376, 2377, 2369
1690, 2250, 2291, 2285, 2249, 2342, 2383, 2377, 2341
1691, 2287, 2291, 2292, 2288, 2379, 2383, 2384, 2380
1692, 2264, 2289, 2267, 2300, 2356, 2381, 2359, 2392
1693, 2218, 2237, 2299, 2262, 2310, 2329, 2391, 2354
1694, 2236, 2264, 2255, 2216, 2328, 2356, 2347, 2308
1695, 2258, 2297, 2296, 2257, 2350, 2389, 2388, 2349
1696, 2298, 2213, 2215, 2256, 2390, 2305, 2307, 2348
1697, 2260, 2214, 2209, 2258, 2352, 2306, 2301, 2350
1698, 2295, 2253, 2259, 2261, 2387, 2345, 2351, 2353
1699, 2259, 2293, 2263, 2261, 2351, 2385, 2355, 2353
1700, 2286, 2266, 2260, 2265, 2378, 2358, 2352, 2357
1701, 2267, 2252, 2222, 2263, 2359, 2344, 2314, 2355
1702, 2294, 2262, 2299, 2253, 2386, 2354, 2391, 2345
1703, 2292, 2251, 2252, 2267, 2384, 2343, 2344, 2359
1704, 2264, 2300, 2293, 2255, 2356, 2392, 2385, 2347
1705, 2239, 2240, 2286, 2268, 2331, 2332, 2378, 2360
1706, 2251, 2292, 2291, 2250, 2343, 2384, 2383, 2342
1707, 2288, 2292, 2267, 2289, 2380, 2384, 2359, 2381
1708, 2268, 2256, 2215, 2239, 2360, 2348, 2307, 2331
1709, 2241, 2290, 2286, 2240, 2333, 2382, 2378, 2332
1710, 2243, 2279, 2278, 2242, 2335, 2371, 2370, 2334
1711, 2244, 2280, 2279, 2243, 2336, 2372, 2371, 2335
1712, 2245, 2281, 2280, 2244, 2337, 2373, 2372, 2336
1713, 2246, 2282, 2281, 2245, 2338, 2374, 2373, 2337
1714, 2247, 2283, 2282, 2246, 2339, 2375, 2374, 2338
1715, 2248, 2284, 2283, 2247, 2340, 2376, 2375, 2339
1716, 2249, 2285, 2284, 2248, 2341, 2377, 2376, 2340
1717, 2290, 2241, 2242, 2278, 2382, 2333, 2334, 2370
1718, 2291, 2287, 2277, 2285, 2383, 2379, 2369, 2377
1719, 2264, 2236, 2235, 2289, 2356, 2328, 2327, 2381
1720, 2263, 2293, 2300, 2267, 2355, 2385, 2392, 2359
1721, 2237, 2217, 2254, 2299, 2329, 2309, 2346, 2391
1722, 2238, 2220, 2253, 2295, 2330, 2312, 2345, 2387
1723, 2210, 2297, 2258, 2209, 2302, 2389, 2350, 2301
1724, 2298, 2256, 2265, 2257, 2390, 2348, 2357, 2349
1725, 2254, 2259, 2253, 2299, 2346, 2351, 2345, 2391
1726, 2349, 2304, 2305, 2390, 2441, 2396, 2397, 2482
1727, 2302, 2303, 2388, 2389, 2394, 2395, 2480, 2481
1728, 2303, 2304, 2349, 2388, 2395, 2396, 2441, 2480
1729, 2352, 2350, 2349, 2357, 2444, 2442, 2441, 2449
1730, 2306, 2352, 2358, 2315, 2398, 2444, 2450, 2407
1731, 2308, 2347, 2346, 2309, 2400, 2439, 2438, 2401
1732, 2386, 2311, 2310, 2354, 2478, 2403, 2402, 2446
1733, 2313, 2330, 2387, 2353, 2405, 2422, 2479, 2445
1734, 2315, 2358, 2361, 2316, 2407, 2450, 2453, 2408
1735, 2316, 2361, 2362, 2317, 2408, 2453, 2454, 2409
1736, 2317, 2362, 2363, 2318, 2409, 2454, 2455, 2410
1737, 2318, 2363, 2364, 2319, 2410, 2455, 2456, 2411
1738, 2319, 2364, 2365, 2320, 2411, 2456, 2457, 2412
1739, 2320, 2365, 2366, 2321, 2412, 2457, 2458, 2413
1740, 2321, 2366, 2367, 2322, 2413, 2458, 2459, 2414
1741, 2322, 2367, 2368, 2323, 2414, 2459, 2460, 2415
1742, 2323, 2368, 2369, 2324, 2415, 2460, 2461, 2416
1743, 2324, 2369, 2379, 2325, 2416, 2461, 2471, 2417
1744, 2325, 2379, 2380, 2326, 2417, 2471, 2472, 2418
1745, 2326, 2380, 2381, 2327, 2418, 2472, 2473, 2419
1746, 2346, 2347, 2385, 2351, 2438, 2439, 2477, 2443
1747, 2345, 2312, 2311, 2386, 2437, 2404, 2403, 2478
1748, 2355, 2314, 2313, 2353, 2447, 2406, 2405, 2445
1749, 2357, 2348, 2360, 2378, 2449, 2440, 2452, 2470
1750, 2358, 2378, 2382, 2361, 2450, 2470, 2474, 2453
1751, 2361, 2382, 2370, 2362, 2453, 2474, 2462, 2454
1752, 2362, 2370, 2371, 2363, 2454, 2462, 2463, 2455
1753, 2363, 2371, 2372, 2364, 2455, 2463, 2464, 2456
1754, 2364, 2372, 2373, 2365, 2456, 2464, 2465, 2457
1755, 2365, 2373, 2374, 2366, 2457, 2465, 2466, 2458
1756, 2366, 2374, 2375, 2367, 2458, 2466, 2467, 2459
1757, 2367, 2375, 2376, 2368, 2459, 2467, 2468, 2460
1758, 2368, 2376, 2377, 2369, 2460, 2468, 2469, 2461
1759, 2342, 2383, 2377, 2341, 2434, 2475, 2469, 2433
1760, 2379, 2383, 2384, 2380, 2471, 2475, 2476, 2472
1761, 2356, 2381, 2359, 2392, 2448, 2473, 2451, 2484
1762, 2310, 2329, 2391, 2354, 2402, 2421, 2483, 2446
1763, 2328, 2356, 2347, 2308, 2420, 2448, 2439, 2400
1764, 2350, 2389, 2388, 2349, 2442, 2481, 2480, 2441
1765, 2390, 2305, 2307, 2348, 2482, 2397, 2399, 2440
1766, 2352, 2306, 2301, 2350, 2444, 2398, 2393, 2442
1767, 2387, 2345, 2351, 2353, 2479, 2437, 2443, 2445
1768, 2351, 2385, 2355, 2353, 2443, 2477, 2447, 2445
1769, 2378, 2358, 2352, 2357, 2470, 2450, 2444, 2449
1770, 2359, 2344, 2314, 2355, 2451, 2436, 2406, 2447
1771, 2386, 2354, 2391, 2345, 2478, 2446, 2483, 2437
1772, 2384, 2343, 2344, 2359, 2476, 2435, 2436, 2451
1773, 2356, 2392, 2385, 2347, 2448, 2484, 2477, 2439
1774, 2331, 2332, 2378, 2360, 2423, 2424, 2470, 2452
1775, 2343, 2384, 2383, 2342, 2435, 2476, 2475, 2434
1776, 2380, 2384, 2359, 2381, 2472, 2476, 2451, 2473
1777, 2360, 2348, 2307, 2331, 2452, 2440, 2399, 2423
1778, 2333, 2382, 2378, 2332, 2425, 2474, 2470, 2424
1779, 2335, 2371, 2370, 2334, 2427, 2463, 2462, 2426
1780, 2336, 2372, 2371, 2335, 2428, 2464, 2463, 2427
1781, 2337, 2373, 2372, 2336, 2429, 2465, 2464, 2428
1782, 2338, 2374, 2373, 2337, 2430, 2466, 2465, 2429
1783, 2339, 2375, 2374, 2338, 2431, 2467, 2466, 2430
1784, 2340, 2376, 2375, 2339, 2432, 2468, 2467, 2431
1785, 2341, 2377, 2376, 2340, 2433, 2469, 2468, 2432
1786, 2382, 2333, 2334, 2370, 2474, 2425, 2426, 2462
1787, 2383, 2379, 2369, 2377, 2475, 2471, 2461, 2469
1788, 2356, 2328, 2327, 2381, 2448, 2420, 2419, 2473
1789, 2355, 2385, 2392, 2359, 2447, 2477, 2484, 2451
1790, 2329, 2309, 2346, 2391, 2421, 2401, 2438, 2483
1791, 2330, 2312, 2345, 2387, 2422, 2404, 2437, 2479
1792, 2302, 2389, 2350, 2301, 2394, 2481, 2442, 2393
1793, 2390, 2348, 2357, 2349, 2482, 2440, 2449, 2441
1794, 2346, 2351, 2345, 2391, 2438, 2443, 2437, 2483
1795, 2441, 2396, 2397, 2482, 2533, 2488, 2489, 2574
1796, 2394, 2395, 2480, 2481, 2486, 2487, 2572, 2573
1797, 2395, 2396, 2441, 2480, 2487, 2488, 2533, 2572
1798, 2444, 2442, 2441, 2449, 2536, 2534, 2533, 2541
1799, 2398, 2444, 2450, 2407, 2490, 2536, 2542, 2499
1800, 2400, 2439, 2438, 2401, 2492, 2531, 2530, 2493
1801, 2478, 2403, 2402, 2446, 2570, 2495, 2494, 2538
1802, 2405, 2422, 2479, 2445, 2497, 2514, 2571, 2537
1803, 2407, 2450, 2453, 2408, 2499, 2542, 2545, 2500
1804, 2408, 2453, 2454, 2409, 2500, 2545, 2546, 2501
1805, 2409, 2454, 2455, 2410, 2501, 2546, 2547, 2502
1806, 2410, 2455, 2456, 2411, 2502, 2547, 2548, 2503
1807, 2411, 2456, 2457, 2412, 2503, 2548, 2549, 2504
1808, 2412, 2457, 2458, 2413, 2504, 2549, 2550, 2505
1809, 2413, 2458, 2459, 2414, 2505, 2550, 2551, 2506
1810, 2414, 2459, 2460, 2415, 2506, 2551, 2552, 2507
1811, 2415, 2460, 2461, 2416, 2507, 2552, 2553, 2508
1812, 2416, 2461, 2471, 2417, 2508, 2553, 2563, 2509
1813, 2417, 2471, 2472, 2418, 2509, 2563, 2564, 2510
1814, 2418, 2472, 2473, 2419, 2510, 2564, 2565, 2511
1815, 2438, 2439, 2477, 2443, 2530, 2531, 2569, 2535
1816, 2437, 2404, 2403, 2478, 2529, 2496, 2495, 2570
1817, 2447, 2406, 2405, 2445, 2539, 2498, 2497, 2537
1818, 2449, 2440, 2452, 2470, 2541, 2532, 2544, 2562
1819, 2450, 2470, 2474, 2453, 2542, 2562, 2566, 2545
1820, 2453, 2474, 2462, 2454, 2545, 2566, 2554, 2546
1821, 2454, 2462, 2463, 2455, 2546, 2554, 2555, 2547
1822, 2455, 2463, 2464, 2456, 2547, 2555, 2556, 2548
1823, 2456, 2464, 2465, 2457, 2548, 2556, 2557, 2549
1824, 2457, 2465, 2466, 2458, 2549, 2557, 2558, 2550
1825, 2458, 2466, 2467, 2459, 2550, 2558, 2559, 2551
1826, 2459, 2467, 2468, 2460, 2551, 2559, 2560, 2552
1827, 2460, 2468, 2469, 2461, 2552, 2560, 2561, 2553
1828, 2434, 2475, 2469, 2433, 2526, 2567, 2561, 2525
1829, 2471, 2475, 2476, 2472, 2563, 2567, 2568, 2564
1830, 2448, 2473, 2451, 2484, 2540, 2565, 2543, 2576
1831, 2402, 2421, 2483, 2446, 2494, 2513, 2575, 2538
1832, 2420, 2448, 2439, 2400, 2512, 2540, 2531, 2492
1833, 2442, 2481, 2480, 2441, 2534, 2573, 2572, 2533
1834, 2482, 2397, 2399, 2440, 2574, 2489, 2491, 2532
1835, 2444, 2398, 2393, 2442, 2536, 2490, 2485, 2534
1836, 2479, 2437, 2443, 2445, 2571, 2529, 2535, 2537
1837, 2443, 2477, 2447, 2445, 2535, 2569, 2539, 2537
1838, 2470, 2450, 2444, 2449, 2562, 2542, 2536, 2541
1839, 2451, 2436, 2406, 2447, 2543, 2528, 2498, 2539
1840, 2478, 2446, 2483, 2437, 2570, 2538, 2575, 2529
1841, 2476, 2435, 2436, 2451, 2568, 2527, 2528, 2543
1842, 2448, 2484, 2477, 2439, 2540, 2576, 2569, 2531
1843, 2423, 2424, 2470, 2452, 2515, 2516, 2562, 2544
1844, 2435, 2476, 2475, 2434, 2527, 2568, 2567, 2526
1845, 2472, 2476, 2451, 2473, 2564, 2568, 2543, 2565
1846, 2452, 2440, 2399, 2423, 2544, 2532, 2491, 2515
1847, 2425, 2474, 2470, 2424, 2517, 2566, 2562, 2516
1848, 2427, 2463, 2462, 2426, 2519, 2555, 2554, 2518
1849, 2428, 2464, 2463, 2427, 2520, 2556, 2555, 2519
1850, 2429, 2465, 2464, 2428, 2521, 2557, 2556, 2520
1851, 2430, 2466, 2465, 2429, 2522, 2558, 2557, 2521
1852, 2431, 2467, 2466, 2430, 2523, 2559, 2558, 2522
1853, 2432, 2468, 2467, 2431, 2524, 2560, 2559, 2523
1854, 2433, 2469, 2468, 2432, 2525, 2561, 2560, 2524
1855, 2474, 2425, 2426, 2462, 2566, 2517, 2518, 2554
1856, 2475, 2471, 2461, 2469, 2567, 2563, 2553, 2561
1857, 2448, 2420, 2419, 2473, 2540, 2512, 2511, 2565
1858, 2447, 2477, 2484, 2451, 2539, 2569, 2576, 2543
1859, 2421, 2401, 2438, 2483, 2513, 2493, 2530, 2575
1860, 2422, 2404, 2437, 2479, 2514, 2496, 2529, 2571
1861, 2394, 2481, 2442, 2393, 2486, 2573, 2534, 2485
1862, 2482, 2440, 2449, 2441, 2574, 2532, 2541, 2533
1863, 2438, 2443, 2437, 2483, 2530, 2535, 2529, 2575
1864, 2533, 2488, 2489, 2574, 2625, 2580, 2581, 2666
1865, 2486, 2487, 2572, 2573, 2578, 2579, 2664, 2665
1866, 2487, 2488, 2533, 2572, 2579, 2580, 2625, 2664
1867, 2536, 2534, 2533, 2541, 2628, 2626, 2625, 2633
1868, 2490, 2536, 2542, 2499, 2582, 2628, 2634, 2591
1869, 2492, 2531, 2530, 2493, 2584, 2623, 2622, 2585
1870, 2570, 2495, 2494, 2538, 2662, 2587, 2586, 2630
1871, 2497, 2514, 2571, 2537, 2589, 2606, 2663, 2629
1872, 2499, 2542, 2545, 2500, 2591, 2634, 2637, 2592
1873, 2500, 2545, 2546, 2501, 2592, 2637, 2638, 2593
1874, 2501, 2546, 2547, 2502, 2593, 2638, 2639, 2594
1875, 2502, 2547, 2548, 2503, 2594, 2639, 2640, 2595
1876, 2503, 2548, 2549, 2504, 2595, 2640, 2641, 2596
1877, 2504, 2549, 2550, 2505, 2596, 2641, 2642, 2597
1878, 2505, 2550, 2551, 2506, 2597, 2642, 2643, 2598
1879, 2506, 2551, 2552, 2507, 2598, 2643, 2644, 2599
1880, 2507, 2552, 2553, 2508, 2599, 2644, 2645, 2600
1881, 2508, 2553, 2563, 2509, 2600, 2645, 2655, 2601
1882, 2509, 2563, 2564, 2510, 2601, 2655, 2656, 2602
1883, 2510, 2564, 2565, 2511, 2602, 2656, 2657, 2603
1884, 2530, 2531, 2569, 2535, 2622, 2623, 2661, 2627
1885, 2529, 2496, 2495, 2570, 2621, 2588, 2587, 2662
1886, 2539, 2498, 2497, 2537, 2631, 2590, 2589, 2629
1887, 2541, 2532, 2544, 2562, 2633, 2624, 2636, 2654
1888, 2542, 2562, 2566, 2545, 2634, 2654, 2658, 2637
1889, 2545, 2566, 2554, 2546, 2637, 2658, 2646, 2638
1890, 2546, 2554, 2555, 2547, 2638, 2646, 2647, 2639
1891, 2547, 2555, 2556, 2548, 2639, 2647, 2648, 2640
1892, 2548, 2556, 2557, 2549, 2640, 2648, 2649, 2641
1893, 2549, 2557, 2558, 2550, 2641, 2649, 2650, 2642
1894, 2550, 2558, 2559, 2551, 2642, 2650, 2651, 2643
1895, 2551, 2559, 2560, 2552, 2643, 2651, 2652, 2644
1896, 2552, 2560, 2561, 2553, 2644, 2652, 2653, 2645
1897, 2526, 2567, 2561, 2525, 2618, 2659, 2653, 2617
1898, 2563, 2567, 2568, 2564, 2655, 2659, 2660, 2656
1899, 2540, 2565, 2543, 2576, 2632, 2657, 2635, 2668
1900, 2494, 2513, 2575, 2538, 2586, 2605, 2667, 2630
1901, 2512, 2540, 2531, 2492, 2604, 2632, 2623, 2584
1902, 2534, 2573, 2572, 2533, 2626, 2665, 2664, 2625
1903, 2574, 2489, 2491, 2532, 2666, 2581, 2583, 2624
1904, 2536, 2490, 2485, 2534, 2628, 2582, 2577, 2626
1905, 2571, 2529, 2535, 2537, 2663, 2621, 2627, 2629
1906, 2535, 2569, 2539, 2537, 2627, 2661, 2631, 2629
1907, 2562, 2542, 2536, 2541, 2654, 2634, 2628, 2633
1908, 2543, 2528, 2498, 2539, 2635, 2620, 2590, 2631
1909, 2570, 2538, 2575, 2529, 2662, 2630, 2667, 2621
1910, 2568, 2527, 2528, 2543, 2660, 2619, 2620, 2635
1911, 2540, 2576, 2569, 2531, 2632, 2668, 2661, 2623
1912, 2515, 2516, 2562, 2544, 2607, 2608, 2654, 2636
1913, 2527, 2568, 2567, 2526, 2619, 2660, 2659, 2618
1914, 2564, 2568, 2543, 2565, 2656, 2660, 2635, 2657
1915, 2544, 2532, 2491, 2515, 2636, 2624, 2583, 2607
1916, 2517, 2566, 2562, 2516, 2609, 2658, 2654, 2608
1917, 2519, 2555, 2554, 2518, 2611, 2647, 2646, 2610
1918, 2520, 2556, 2555, 2519, 2612, 2648, 2647, 2611
1919, 2521, 2557, 2556, 2520, 2613, 2649, 2648, 2612
1920, 2522, 2558, 2557, 2521, 2614, 2650, 2649, 2613
1921, 2523, 2559, 2558, 2522, 2615, 2651, 2650, 2614
1922, 2524, 2560, 2559, 2523, 2616, 2652, 2651, 2615
1923, 2525, 2561, 2560, 2524, 2617, 2653, 2652, 2616
1924, 2566, 2517, 2518, 2554, 2658, 2609, 2610, 2646
1925, 2567, 2563, 2553, 2561, 2659, 2655, 2645, 2653
1926, 2540, 2512, 2511, 2565, 2632, 2604, 2603, 2657
1927, 2539, 2569, 2576, 2543, 2631, 2661, 2668, 2635
1928, 2513, 2493, 2530, 2575, 2605, 2585, 2622, 2667
1929, 2514, 2496, 2529, 2571, 2606, 2588, 2621, 2663
1930, 2486, 2573, 2534, 2485, 2578, 2665, 2626, 2577
1931, 2574, 2532, 2541, 2533, 2666, 2624, 2633, 2625
1932, 2530, 2535, 2529, 2575, 2622, 2627, 2621, 2667
1933, 2625, 2580, 2581, 2666, 2717, 2672, 2673, 2758
1934, 2578, 2579, 2664, 2665, 2670, 2671, 2756, 2757
1935, 2579, 2580, 2625, 2664, 2671, 2672, 2717, 2756
1936, 2628, 2626, 2625, 2633, 2720, 2718, 2717, 2725
1937, 2582, 2628, 2634, 2591, 2674, 2720, 2726, 2683
1938, 2584, 2623, 2622, 2585, 2676, 2715, 2714, 2677
1939, 2662, 2587, 2586, 2630, 2754, 2679, 2678, 2722
1940, 2589, 2606, 2663, 2629, 2681, 2698, 2755, 2721
1941, 2591, 2634, 2637, 2592, 2683, 2726, 2729, 2684
1942, 2592, 2637, 2638, 2593, 2684, 2729, 2730, 2685
1943, 2593, 2638, 2639, 2594, 2685, 2730, 2731, 2686
1944, 2594, 2639, 2640, 2595, 2686, 2731, 2732, 2687
1945, 2595, 2640, 2641, 2596, 2687, 2732, 2733, 2688
1946, 2596, 2641, 2642, 2597, 2688, 2733, 2734, 2689
1947, 2597, 2642, 2643, 2598, 2689, 2734, 2735, 2690
1948, 2598, 2643, 2644, 2599, 2690, 2735, 2736, 2691
1949, 2599, 2644, 2645, 2600, 2691, 2736, 2737, 2692
1950, 2600, 2645, 2655, 2601, 2692, 2737, 2747, 2693
1951, 2601, 2655, 2656, 2602, 2693, 2747, 2748, 2694
1952, 2602, 2656, 2657, 2603, 2694, 2748, 2749, 2695
1953, 2622, 2623, 2661, 2627, 2714, 2715, 2753, 2719
1954, 2621, 2588, 2587, 2662, 2713, 2680, 2679, 2754
1955, 2631, 2590, 2589, 2629, 2723, 2682, 2681, 2721
1956, 2633, 2624, 2636, 2654, 2725, 2716, 2728, 2746
1957, 2634, 2654, 2658, 2637, 2726, 2746, 2750, 2729
1958, 2637, 2658, 2646, 2638, 2729, 2750, 2738, 2730
1959, 2638, 2646, 2647, 2639, 2730, 2738, 2739, 2731
1960, 2639, 2647, 2648, 2640, 2731, 2739, 2740, 2732
1961, 2640, 2648, 2649, 2641, 2732, 2740, 2741, 2733
1962, 2641, 2649, 2650, 2642, 2733, 2741, 2742, 2734
1963, 2642, 2650, 2651, 2643, 2734, 2742, 2743, 2735
1964, 2643, 2651, 2652, 2644, 2735, 2743, 2744, 2736
1965, 2644, 2652, 2653, 2645, 2736, 2744, 2745, 2737
1966, 2618, 2659, 2653, 2617, 2710, 2751, 2745, 2709
1967, 2655, 2659, 2660, 2656, 2747, 2751, 2752, 2748
1968, 2632, 2657, 2635, 2668, 2724, 2749, 2727, 2760
1969, 2586, 2605, 2667, 2630, 2678, 2697, 2759, 2722
1970, 2604, 2632, 2623, 2584, 2696, 2724, 2715, 2676
1971, 2626, 2665, 2664, 2625, 2718, 2757, 2756, 2717
1972, 2666, 2581, 2583, 2624, 2758, 2673, 2675, 2716
1973, 2628, 2582, 2577, 2626, 2720, 2674, 2669, 2718
1974, 2663, 2621, 2627, 2629, 2755, 2713, 2719, 2721
1975, 2627, 2661, 2631, 2629, 2719, 2753, 2723, 2721
1976, 2654, 2634, 2628, 2633, 2746, 2726, 2720, 2725
1977, 2635, 2620, 2590, 2631, 2727, 2712, 2682, 2723
1978, 2662, 2630, 2667, 2621, 2754, 2722, 2759, 2713
1979, 2660, 2619, 2620, 2635, 2752, 2711, 2712, 2727
1980, 2632, 2668, 2661, 2623, 2724, 2760, 2753, 2715
1981, 2607, 2608, 2654, 2636, 2699, 2700, 2746, 2728
1982, 2619, 2660, 2659, 2618, 2711, 2752, 2751, 2710
1983, 2656, 2660, 2635, 2657, 2748, 2752, 2727, 2749
1984, 2636, 2624, 2583, 2607, 2728, 2716, 2675, 2699
1985, 2609, 2658, 2654, 2608, 2701, 2750, 2746, 2700
1986, 2611, 2647, 2646, 2610, 2703, 2739, 2738, 2702
1987, 2612, 2648, 2647, 2611, 2704, 2740, 2739, 2703
1988, 2613, 2649, 2648, 2612, 2705, 2741, 2740, 2704
1989, 2614, 2650, 2649, 2613, 2706, 2742, 2741, 2705
1990, 2615, 2651, 2650, 2614, 2707, 2743, 2742, 2706
1991, 2616, 2652, 2651, 2615, 2708, 2744, 2743, 2707
1992, 2617, 2653, 2652, 2616, 2709, 2745, 2744, 2708
1993, 2658, 2609, 2610, 2646, 2750, 2701, 2702, 2738
1994, 2659, 2655, 2645, 2653, 2751, 2747, 2737, 2745
1995, 2632, 2604, 2603, 2657, 2724, 2696, 2695, 2749
1996, 2631, 2661, 2668, 2635, 2723, 2753, 2760, 2727
1997, 2605, 2585, 2622, 2667, 2697, 2677, 2714, 2759
1998, 2606, 2588, 2621, 2663, 2698, 2680, 2713, 2755
1999, 2578, 2665, 2626, 2577, 2670, 2757, 2718, 2669
2000, 2666, 2624, 2633, 2625, 2758, 2716, 2725, 2717
2001, 2622, 2627, 2621, 2667, 2714, 2719, 2713, 2759
2002, 2717, 2672, 2673, 2758, 2809, 2764, 2765, 2850
2003, 2670, 2671, 2756, 2757, 2762, 2763, 2848, 2849
2004, 2671, 2672, 2717, 2756, 2763, 2764, 2809, 2848
2005, 2720, 2718, 2717, 2725, 2812, 2810, 2809, 2817
2006, 2674, 2720, 2726, 2683, 2766, 2812, 2818, 2775
2007, 2676, 2715, 2714, 2677, 2768, 2807, 2806, 2769
2008, 2754, 2679, 2678, 2722, 2846, 2771, 2770, 2814
2009, 2681, 2698, 2755, 2721, 2773, 2790, 2847, 2813
2010, 2683, 2726, 2729, 2684, 2775, 2818, 2821, 2776
2011, 2684, 2729, 2730, 2685, 2776, 2821, 2822, 2777
2012, 2685, 2730, 2731, 2686, 2777, 2822, 2823, 2778
2013, 2686, 2731, 2732, 2687, 2778, 2823, 2824, 2779
2014, 2687, 2732, 2733, 2688, 2779, 2824, 2825, 2780
2015, 2688, 2733, 2734, 2689, 2780, 2825, 2826, 2781
2016, 2689, 2734, 2735, 2690, 2781, 2826, 2827, 2782
2017, 2690, 2735, 2736, 2691, 2782, 2827, 2828, 2783
2018, 2691, 2736, 2737, 2692, 2783, 2828, 2829, 2784
2019, 2692, 2737, 2747, 2693, 2784, 2829, 2839, 2785
2020, 2693, 2747, 2748, 2694, 2785, 2839, 2840, 2786
2021, 2694, 2748, 2749, 2695, 2786, 2840, 2841, 2787
2022, 2714, 2715, 2753, 2719, 2806, 2807, 2845, 2811
2023, 2713, 2680, 2679, 2754, 2805, 2772, 2771, 2846
2024, 2723, 2682, 2681, 2721, 2815, 2774, 2773, 2813
2025, 2725, 2716, 2728, 2746, 2817, 2808, 2820, 2838
2026, 2726, 2746, 2750, 2729, 2818, 2838, 2842, 2821
2027, 2729, 2750, 2738, 2730, 2821, 2842, 2830, 2822
2028, 2730, 2738, 2739, 2731, 2822, 2830, 2831, 2823
2029, 2731, 2739, 2740, 2732, 2823, 2831, 2832, 2824
2030, 2732, 2740, 2741, 2733, 2824, 2832, 2833, 2825
2031, 2733, 2741, 2742, 2734, 2825, 2833, 2834, 2826
2032, 2734, 2742, 2743, 2735, 2826, 2834, 2835, 2827
2033, 2735, 2743, 2744, 2736, 2827, 2835, 2836, 2828
2034, 2736, 2744, 2745, 2737, 2828, 2836, 2837, 2829
2035, 2710, 2751, 2745, 2709, 2802, 2843, 2837, 2801
2036, 2747, 2751, 2752, 2748, 2839, 2843, 2844, 2840
2037, 2724, 2749, 2727, 2760, 2816, 2841, 2819, 2852
2038, 2678, 2697, 2759, 2722, 2770, 2789, 2851, 2814
2039, 2696, 2724, 2715, 2676, 2788, 2816, 2807, 2768
2040, 2718, 2757, 2756, 2717, 2810, 2849, 2848, 2809
2041, 2758, 2673, 2675, 2716, 2850, 2765, 2767, 2808
2042, 2720, 2674, 2669, 2718, 2812, 2766, 2761, 2810
2043, 2755, 2713, 2719, 2721, 2847, 2805, 2811, 2813
2044, 2719, 2753, 2723, 2721, 2811, 2845, 2815, 2813
2045, 2746, 2726, 2720, 2725, 2838, 2818, 2812, 2817
2046, 2727, 2712, 2682, 2723, 2819, 2804, 2774, 2815
2047, 2754, 2722, 2759, 2713, 2846, 2814, 2851, 2805
2048, 2752, 2711, 2712, 2727, 2844, 2803, 2804, 2819
2049, 2724, 2760, 2753, 2715, 2816, 2852, 2845, 2807
2050, 2699, 2700, 2746, 2728, 2791, 2792, 2838, 2820
2051, 2711, 2752, 2751, 2710, 2803, 2844, 2843, 2802
2052, 2748, 2752, 2727, 2749, 2840, 2844, 2819, 2841
2053, 2728, 2716, 2675, 2699, 2820, 2808, 2767, 2791
2054, 2701, 2750, 2746, 2700, 2793, 2842, 2838, 2792
2055, 2703, 2739, 2738, 2702, 2795, 2831, 2830, 2794
2056, 2704, 2740, 2739, 2703, 2796, 2832, 2831, 2795
2057, 2705, 2741, 2740, 2704, 2797, 2833, 2832, 2796
2058, 2706, 2742, 2741, 2705, 2798, 2834, 2833, 2797
2059, 2707, 2743, 2742, 2706, 2799, 2835, 2834, 2798
2060, 2708, 2744, 2743, 2707, 2800, 2836, 2835, 2799
2061, 2709, 2745, 2744, 2708, 2801, 2837, 2836, 2800
2062, 2750, 2701, 2702, 2738, 2842, 2793, 2794, 2830
2063, 2751, 2747, 2737, 2745, 2843, 2839, 2829, 2837
2064, 2724, 2696, 2695, 2749, 2816, 2788, 2787, 2841
2065, 2723, 2753, 2760, 2727, 2815, 2845, 2852, 2819
2066, 2697, 2677, 2714, 2759, 2789, 2769, 2806, 2851
2067, 2698, 2680, 2713, 2755, 2790, 2772, 2805, 2847
2068, 2670, 2757, 2718, 2669, 2762, 2849, 2810, 2761
2069, 2758, 2716, 2725, 2717, 2850, 2808, 2817, 2809
2070, 2714, 2719, 2713, 2759, 2806, 2811, 2805, 2851
2071, 2809, 2764, 2765, 2850, 2901, 2856, 2857, 2942
2072, 2762, 2763, 2848, 2849, 2854, 2855, 2940, 2941
2073, 2763, 2764, 2809, 2848, 2855, 2856, 2901, 2940
2074, 2812, 2810, 2809, 2817, 2904, 2902, 2901, 2909
2075, 2766, 2812, 2818, 2775, 2858, 2904, 2910, 2867
2076, 2768, 2807, 2806, 2769, 2860, 2899, 2898, 2861
2077, 2846, 2771, 2770, 2814, 2938, 2863, 2862, 2906
2078, 2773, 2790, 2847, 2813, 2865, 2882, 2939, 2905
2079, 2775, 2818, 2821, 2776, 2867, 2910, 2913, 2868
2080, 2776, 2821, 2822, 2777, 2868, 2913, 2914, 2869
2081, 2777, 2822, 2823, 2778, 2869, 2914, 2915, 2870
2082, 2778, 2823, 2824, 2779, 2870, 2915, 2916, 2871
2083, 2779, 2824, 2825, 2780, 2871, 2916, 2917, 2872
2084, 2780, 2825, 2826, 2781, 2872, 2917, 2918, 2873
2085, 2781, 2826, 2827, 2782, 2873, 2918, 2919, 2874
2086, 2782, 2827, 2828, 2783, 2874, 2919, 2920, 2875
2087, 2783, 2828, 2829, 2784, 2875, 2920, 2921, 2876
2088, 2784, 2829, 2839, 2785, 2876, 2921, 2931, 2877
2089, 2785, 2839, 2840, 2786, 2877, 2931, 2932, 2878
2090, 2786, 2840, 2841, 2787, 2878, 2932, 2933, 2879
2091, 2806, 2807, 2845, 2811, 2898, 2899, 2937, 2903
2092, 2805, 2772, 2771, 2846, 2897, 2864, 2863, 2938
2093, 2815, 2774, 2773, 2813, 2907, 2866, 2865, 2905
2094, 2817, 2808, 2820, 2838, 2909, 2900, 2912, 2930
2095, 2818, 2838, 2842, 2821, 2910, 2930, 2934, 2913
2096, 2821, 2842, 2830, 2822, 2913, 2934, 2922, 2914
2097, 2822, 2830, 2831, 2823, 2914, 2922, 2923, 2915
2098, 2823, 2831, 2832, 2824, 2915, 2923, 2924, 2916
2099, 2824, 2832, 2833, 2825, 2916, 2924, 2925, 2917
2100, 2825, 2833, 2834, 2826, 2917, 2925, 2926, 2918
2101, 2826, 2834, 2835, 2827, 2918, 2926, 2927, 2919
2102, 2827, 2835, 2836, 2828, 2919, 2927, 2928, 2920
2103, 2828, 2836, 2837, 2829, 2920, 2928, 2929, 2921
2104, 2802, 2843, 2837, 2801, 2894, 2935, 2929, 2893
2105, 2839, 2843, 2844, 2840, 2931, 2935, 2936, 2932
2106, 2816, 2841, 2819, 2852, 2908, 2933, 2911, 2944
2107, 2770, 2789, 2851, 2814, 2862, 2881, 2943, 2906
2108, 2788, 2816, 2807, 2768, 2880, 2908, 2899, 2860
2109, 2810, 2849, 2848, 2809, 2902, 2941, 2940, 2901
2110, 2850, 2765, 2767, 2808, 2942, 2857, 2859, 2900
2111, 2812, 2766, 2761, 2810, 2904, 2858, 2853, 2902
2112, 2847, 2805, 2811, 2813, 2939, 2897, 2903, 2905
2113, 2811, 2845, 2815, 2813, 2903, 2937, 2907, 2905
2114, 2838, 2818, 2812, 2817, 2930, 2910, 2904, 2909
2115, 2819, 2804, 2774, 2815, 2911, 2896, 2866, 2907
2116, 2846, 2814, 2851, 2805, 2938, 2906, 2943, 2897
2117, 2844, 2803, 2804, 2819, 2936, 2895, 2896, 2911
2118, 2816, 2852, 2845, 2807, 2908, 2944, 2937, 2899
2119, 2791, 2792, 2838, 2820, 2883, 2884, 2930, 2912
2120, 2803, 2844, 2843, 2802, 2895, 2936, 2935, 2894
2121, 2840, 2844, 2819, 2841, 2932, 2936, 2911, 2933
2122, 2820, 2808, 2767, 2791, 2912, 2900, 2859, 2883
2123, 2793, 2842, 2838, 2792, 2885, 2934, 2930, 2884
2124, 2795, 2831, 2830, 2794, 2887, 2923, 2922, 2886
2125, 2796, 2832, 2831, 2795, 2888, 2924, 2923, 2887
2126, 2797, 2833, 2832, 2796, 2889, 2925, 2924, 2888
2127, 2798, 2834, 2833, 2797, 2890, 2926, 2925, 2889
2128, 2799, 2835, 2834, 2798, 2891, 2927, 2926, 2890
2129, 2800, 2836, 2835, 2799, 2892, 2928, 2927, 2891
2130, 2801, 2837, 2836, 2800, 2893, 2929, 2928, 2892
2131, 2842, 2793, 2794, 2830, 2934, 2885, 2886, 2922
2132, 2843, 2839, 2829, 2837, 2935, 2931, 2921, 2929
2133, 2816, 2788, 2787, 2841, 2908, 2880, 2879, 2933
2134, 2815, 2845, 2852, 2819, 2907, 2937, 2944, 2911
2135, 2789, 2769, 2806, 2851, 2881, 2861, 2898, 2943
2136, 2790, 2772, 2805, 2847, 2882, 2864, 2897, 2939
2137, 2762, 2849, 2810, 2761, 2854, 2941, 2902, 2853
2138, 2850, 2808, 2817, 2809, 2942, 2900, 2909, 2901
2139, 2806, 2811, 2805, 2851, 2898, 2903, 2897, 2943
2140, 2901, 2856, 2857, 2942, 2993, 2948, 2949, 3034
2141, 2854, 2855, 2940, 2941, 2946, 2947, 3032, 3033
2142, 2855, 2856, 2901, 2940, 2947, 2948, 2993, 3032
2143, 2904, 2902, 2901, 2909, 2996, 2994, 2993, 3001
2144, 2858, 2904, 2910, 2867, 2950, 2996, 3002, 2959
2145, 2860, 2899, 2898, 2861, 2952, 2991, 2990, 2953
2146, 2938, 2863, 2862, 2906, 3030, 2955, 2954, 2998
2147, 2865, 2882, 2939, 2905, 2957, 2974, 3031, 2997
2148, 2867, 2910, 2913, 2868, 2959, 3002, 3005, 2960
2149, 2868, 2913, 2914, 2869, 2960, 3005, 3006, 2961
2150, 2869, 2914, 2915, 2870, 2961, 3006, 3007, 2962
2151, 2870, 2915, 2916, 2871, 2962, 3007, 3008, 2963
2152, 2871, 2916, 2917, 2872, 2963, 3008, 3009, 2964
2153, 2872, 2917, 2918, 2873, 2964, 3009, 3010, 2965
2154, 2873, 2918, 2919, 2874, 2965, 3010, 3011, 2966
2155, 2874, 2919, 2920, 2875, 2966, 3011, 3012, 2967
2156, 2875, 2920, 2921, 2876, 2967, 3012, 3013, 2968
2157, 2876, 2921, 2931, 2877, 2968, 3013, 3023, 2969
2158, 2877, 2931, 2932, 2878, 2969, 3023, 3024, 2970
2159, 2878, 2932, 2933, 2879, 2970, 3024, 3025, 2971
2160, 2898, 2899, 2937, 2903, 2990, 2991, 3029, 2995
2161, 2897, 2864, 2863, 2938, 2989, 2956, 2955, 3030
2162, 2907, 2866, 2865, 2905, 2999, 2958, 2957, 2997
2163, 2909, 2900, 2912, 2930, 3001, 2992, 3004, 3022
2164, 2910, 2930, 2934, 2913, 3002, 3022, 3026, 3005
2165, 2913, 2934, 2922, 2914, 3005, 3026, 3014, 3006
2166, 2914, 2922, 2923, 2915, 3006, 3014, 3015, 3007
2167, 2915, 2923, 2924, 2916, 3007, 3015, 3016, 3008
2168, 2916, 2924, 2925, 2917, 3008, 3016, 3017, 3009
2169, 2917, 2925, 2926, 2918, 3009, 3017, 3018, 3010
2170, 2918, 2926, 2927, 2919, 3010, 3018, 3019, 3011
2171, 2919, 2927, 2928, 2920, 3011, 3019, 3020, 3012
2172, 2920, 2928, 2929, 2921, 3012, 3020, 3021, 3013
2173, 2894, 2935, 2929, 2893, 2986, 3027, 3021, 2985
2174, 2931, 2935, 2936, 2932, 3023, 3027, 3028, 3024
2175, 2908, 2933, 2911, 2944, 3000, 3025, 3003, 3036
2176, 2862, 2881, 2943, 2906, 2954, 2973, 3035, 2998
2177, 2880, 2908, 2899, 2860, 2972, 3000, 2991, 2952
2178, 2902, 2941, 2940, 2901, 2994, 3033, 3032, 2993
2179, 2942, 2857, 2859, 2900, 3034, 2949, 2951, 2992
2180, 2904, 2858, 2853, 2902, 2996, 2950, 2945, 2994
2181, 2939, 2897, 2903, 2905, 3031, 2989, 2995, 2997
2182, 2903, 2937, 2907, 2905, 2995, 3029, 2999, 2997
2183, 2930, 2910, 2904, 2909, 3022, 3002, 2996, 3001
2184, 2911, 2896, 2866, 2907, 3003, 2988, 2958, 2999
2185, 2938, 2906, 2943, 2897, 3030, 2998, 3035, 2989
2186, 2936, 2895, 2896, 2911, 3028, 2987, 2988, 3003
2187, 2908, 2944, 2937, 2899, 3000, 3036, 3029, 2991
2188, 2883, 2884, 2930, 2912, 2975, 2976, 3022, 3004
2189, 2895, 2936, 2935, 2894, 2987, 3028, 3027, 2986
2190, 2932, 2936, 2911, 2933, 3024, 3028, 3003, 3025
2191, 2912, 2900, 2859, 2883, 3004, 2992, 2951, 2975
2192, 2885, 2934, 2930, 2884, 2977, 3026, 3022, 2976
2193, 2887, 2923, 2922, 2886, 2979, 3015, 3014, 2978
2194, 2888, 2924, 2923, 2887, 2980, 3016, 3015, 2979
2195, 2889, 2925, 2924, 2888, 2981, 3017, 3016, 2980
2196, 2890, 2926, 2925, 2889, 2982, 3018, 3017, 2981
2197, 2891, 2927, 2926, 2890, 2983, 3019, 3018, 2982
2198, 2892, 2928, 2927, 2891, 2984, 3020, 3019, 2983
2199, 2893, 2929, 2928, 2892, 2985, 3021, 3020, 2984
2200, 2934, 2885, 2886, 2922, 3026, 2977, 2978, 3014
2201, 2935, 2931, 2921, 2929, 3027, 3023, 3013, 3021
2202, 2908, 2880, 2879, 2933, 3000, 2972, 2971, 3025
2203, 2907, 2937, 2944, 2911, 2999, 3029, 3036, 3003
2204, 2881, 2861, 2898, 2943, 2973, 2953, 2990, 3035
2205, 2882, 2864, 2897, 2939, 2974, 2956, 2989, 3031
2206, 2854, 2941, 2902, 2853, 2946, 3033, 2994, 2945
2207, 2942, 2900, 2909, 2901, 3034, 2992, 3001, 2993
2208, 2898, 2903, 2897, 2943, 2990, 2995, 2989, 3035
2209, 2993, 2948, 2949, 3034, 3085, 3040, 3041, 3126
2210, 2946, 2947, 3032, 3033, 3038, 3039, 3124, 3125
2211, 2947, 2948, 2993, 3032, 3039, 3040, 3085, 3124
2212, 2996, 2994, 2993, 3001, 3088, 3086, 3085, 3093
2213, 2950, 2996, 3002, 2959, 3042, 3088, 3094, 3051
2214, 2952, 2991, 2990, 2953, 3044, 3083, 3082, 3045
2215, 3030, 2955, 2954, 2998, 3122, 3047, 3046, 3090
2216, 2957, 2974, 3031, 2997, 3049, 3066, 3123, 3089
2217, 2959, 3002, 3005, 2960, 3051, 3094, 3097, 3052
2218, 2960, 3005, 3006, 2961, 3052, 3097, 3098, 3053
2219, 2961, 3006, 3007, 2962, 3053, 3098, 3099, 3054
2220, 2962, 3007, 3008, 2963, 3054, 3099, 3100, 3055
2221, 2963, 3008, 3009, 2964, 3055, 3100, 3101, 3056
2222, 2964, 3009, 3010, 2965, 3056, 3101, 3102, 3057
2223, 2965, 3010, 3011, 2966, 3057, 3102, 3103, 3058
2224, 2966, 3011, 3012, 2967, 3058, 3103, 3104, 3059
2225, 2967, 3012, 3013, 2968, 3059, 3104, 3105, 3060
2226, 2968, 3013, 3023, 2969, 3060, 3105, 3115, 3061
2227, 2969, 3023, 3024, 2970, 3061, 3115, 3116, 3062
2228, 2970, 3024, 3025, 2971, 3062, 3116, 3117, 3063
2229, 2990, 2991, 3029, 2995, 3082, 3083, 3121, 3087
2230, 2989, 2956, 2955, 3030, 3081, 3048, 3047, 3122
2231, 2999, 2958, 2957, 2997, 3091, 3050, 3049, 3089
2232, 3001, 2992, 3004, 3022, 3093, 3084, 3096, 3114
2233, 3002, 3022, 3026, 3005, 3094, 3114, 3118, 3097
2234, 3005, 3026, 3014, 3006, 3097, 3118, 3106, 3098
2235, 3006, 3014, 3015, 3007, 3098, 3106, 3107, 3099
2236, 3007, 3015, 3016, 3008, 3099, 3107, 3108, 3100
2237, 3008, 3016, 3017, 3009, 3100, 3108, 3109, 3101
2238, 3009, 3017, 3018, 3010, 3101, 3109, 3110, 3102
2239, 3010, 3018, 3019, 3011, 3102, 3110, 3111, 3103
2240, 3011, 3019, 3020, 3012, 3103, 3111, 3112, 3104
2241, 3012, 3020, 3021, 3013, 3104, 3112, 3113, 3105
2242, 2986, 3027, 3021, 2985, 3078, 3119, 3113, 3077
2243, 3023, 3027, 3028, 3024, 3115, 3119, 3120, 3116
2244, 3000, 3025, 3003, 3036, 3092, 3117, 3095, 3128
2245, 2954, 2973, 3035, 2998, 3046, 3065, 3127, 3090
2246, 2972, 3000, 2991, 2952, 3064, 3092, 3083, 3044
2247, 2994, 3033, 3032, 2993, 3086, 3125, 3124, 3085
2248, 3034, 2949, 2951, 2992, 3126, 3041, 3043, 3084
2249, 2996, 2950, 2945, 2994, 3088, 3042, 3037, 3086
2250, 3031, 2989, 2995, 2997, 3123, 3081, 3087, 3089
2251, 2995, 3029, 2999, 2997, 3087, 3121, 3091, 3089
2252, 3022, 3002, 2996, 3001, 3114, 3094, 3088, 3093
2253, 3003, 2988, 2958, 2999, 3095, 3080, 3050, 3091
2254, 3030, 2998, 3035, 2989, 3122, 3090, 3127, 3081
2255, 3028, 2987, 2988, 3003, 3120, 3079, 3080, 3095
2256, 3000, 3036, 3029, 2991, 3092, 3128, 3121, 3083
2257, 2975, 2976, 3022, 3004, 3067, 3068, 3114, 3096
2258, 2987, 3028, 3027, 2986, 3079, 3120, 3119, 3078
2259, 3024, 3028, 3003, 3025, 3116, 3120, 3095, 3117
2260, 3004, 2992, 2951, 2975, 3096, 3084, 3043, 3067
2261, 2977, 3026, 3022, 2976, 3069, 3118, 3114, 3068
2262, 2979, 3015, 3014, 2978, 3071, 3107, 3106, 3070
2263, 2980, 3016, 3015, 2979, 3072, 3108, 3107, 3071
2264, 2981, 3017, 3016, 2980, 3073, 3109, 3108, 3072
2265, 2982, 3018, 3017, 2981, 3074, 3110, 3109, 3073
2266, 2983, 3019, 3018, 2982, 3075, 3111, 3110, 3074
2267, 2984, 3020, 3019, 2983, 3076, 3112, 3111, 3075
2268, 2985, 3021, 3020, 2984, 3077, 3113, 3112, 3076
2269, 3026, 2977, 2978, 3014, 3118, 3069, 3070, 3106
2270, 3027, 3023, 3013, 3021, 3119, 3115, 3105, 3113
2271, 3000, 2972, 2971, 3025, 3092, 3064, 3063, 3117
2272, 2999, 3029, 3036, 3003, 3091, 3121, 3128, 3095
2273, 2973, 2953, 2990, 3035, 3065, 3045, 3082, 3127
2274, 2974, 2956, 2989, 3031, 3066, 3048, 3081, 3123
2275, 2946, 3033, 2994, 2945, 3038, 3125, 3086, 3037
2276, 3034, 2992, 3001, 2993, 3126, 3084, 3093, 3085
2277, 2990, 2995, 2989, 3035, 3082, 3087, 3081, 3127
2278, 3085, 3040, 3041, 3126, 3177, 3132, 3133, 3218
2279, 3038, 3039, 3124, 3125, 3130, 3131, 3216, 3217
2280, 3039, 3040, 3085, 3124, 3131, 3132, 3177, 3216
2281, 3088, 3086, 3085, 3093, 3180, 3178, 3177, 3185
2282, 3042, 3088, 3094, 3051, 3134, 3180, 3186, 3143
2283, 3044, 3083, 3082, 3045, 3136, 3175, 3174, 3137
2284, 3122, 3047, 3046, 3090, 3214, 3139, 3138, 3182
2285, 3049, 3066, 3123, 3089, 3141, 3158, 3215, 3181
2286, 3051, 3094, 3097, 3052, 3143, 3186, 3189, 3144
2287, 3052, 3097, 3098, 3053, 3144, 3189, 3190, 3145
2288, 3053, 3098, 3099, 3054, 3145, 3190, 3191, 3146
2289, 3054, 3099, 3100, 3055, 3146, 3191, 3192, 3147
2290, 3055, 3100, 3101, 3056, 3147, 3192, 3193, 3148
2291, 3056, 3101, 3102, 3057, 3148, 3193, 3194, 3149
2292, 3057, 3102, 3103, 3058, 3149, 3194, 3195, 3150
2293, 3058, 3103, 3104, 3059, 3150, 3195, 3196, 3151
2294, 3059, 3104, 3105, 3060, 3151, 3196, 3197, 3152
2295, 3060, 3105, 3115, 3061, 3152, 3197, 3207, 3153
2296, 3061, 3115, 3116, 3062, 3153, 3207, 3208, 3154
2297, 3062, 3116, 3117, 3063, 3154, 3208, 3209, 3155
2298, 3082, 3083, 3121, 3087, 3174, 3175, 3213, 3179
2299, 3081, 3048, 3047, 3122, 3173, 3140, 3139, 3214
2300, 3091, 3050, 3049, 3089, 3183, 3142, 3141, 3181
2301, 3093, 3084, 3096, 3114, 3185, 3176, 3188, 3206
2302, 3094, 3114, 3118, 3097, 3186, 3206, 3210, 3189
2303, 3097, 3118, 3106, 3098, 3189, 3210, 3198, 3190
2304, 3098, 3106, 3107, 3099, 3190, 3198, 3199, 3191
2305, 3099, 3107, 3108, 3100, 3191, 3199, 3200, 3192
2306, 3100, 3108, 3109, 3101, 3192, 3200, 3201, 3193
2307, 3101, 3109, 3110, 3102, 3193, 3201, 3202, 3194
2308, 3102, 3110, 3111, 3103, 3194, 3202, 3203, 3195
2309, 3103, 3111, 3112, 3104, 3195, 3203, 3204, 3196
2310, 3104, 3112, 3113, 3105, 3196, 3204, 3205, 3197
2311, 3078, 3119, 3113, 3077, 3170, 3211, 3205, 3169
2312, 3115, 3119, 3120, 3116, 3207, 3211, 3212, 3208
2313, 3092, 3117, 3095, 3128, 3184, 3209, 3187, 3220
2314, 3046, 3065, 3127, 3090, 3138, 3157, 3219, 3182
2315, 3064, 3092, 3083, 3044, 3156, 3184, 3175, 3136
2316, 3086, 3125, 3124, 3085, 3178, 3217, 3216, 3177
2317, 3126, 3041, 3043, 3084, 3218, 3133, 3135, 3176
2318, 3088, 3042, 3037, 3086, 3180, 3134, 3129, 3178
2319, 3123, 3081, 3087, 3089, 3215, 3173, 3179, 3181
2320, 3087, 3121, 3091, 3089, 3179, 3213, 3183, 3181
2321, 3114, 3094, 3088, 3093, 3206, 3186, 3180, 3185
2322, 3095, 3080, 3050, 3091, 3187, 3172, 3142, 3183
2323, 3122, 3090, 3127, 3081, 3214, 3182, 3219, 3173
2324, 3120, 3079, 3080, 3095, 3212, 3171, 3172, 3187
2325, 3092, 3128, 3121, 3083, 3184, 3220, 3213, 3175
2326, 3067, 3068, 3114, 3096, 3159, 3160, 3206, 3188
2327, 3079, 3120, 3119, 3078, 3171, 3212, 3211, 3170
2328, 3116, 3120, 3095, 3117, 3208, 3212, 3187, 3209
2329, 3096, 3084, 3043, 3067, 3188, 3176, 3135, 3159
2330, 3069, 3118, 3114, 3068, 3161, 3210, 3206, 3160
2331, 3071, 3107, 3106, 3070, 3163, 3199, 3198, 3162
2332, 3072, 3108, 3107, 3071, 3164, 3200, 3199, 3163
2333, 3073, 3109, 3108, 3072, 3165, 3201, 3200, 3164
2334, 3074, 3110, 3109, 3073, 3166, 3202, 3201, 3165
2335, 3075, 3111, 3110, 3074, 3167, 3203, 3202, 3166
2336, 3076, 3112, 3111, 3075, 3168, 3204, 3203, 3167
2337, 3077, 3113, 3112, 3076, 3169, 3205, 3204, 3168
2338, 3118, 3069, 3070, 3106, 3210, 3161, 3162, 3198
2339, 3119, 3115, 3105, 3113, 3211, 3207, 3197, 3205
2340, 3092, 3064, 3063, 3117, 3184, 3156, 3155, 3209
2341, 3091, 3121, 3128, 3095, 3183, 3213, 3220, 3187
2342, 3065, 3045, 3082, 3127, 3157, 3137, 3174, 3219
2343, 3066, 3048, 3081, 3123, 3158, 3140, 3173, 3215
2344, 3038, 3125, 3086, 3037, 3130, 3217, 3178, 3129
2345, 3126, 3084, 3093, 3085, 3218, 3176, 3185, 3177
2346, 3082, 3087, 3081, 3127, 3174, 3179, 3173, 3219
2347, 3177, 3132, 3133, 3218, 3269, 3224, 3225, 3310
2348, 3130, 3131, 3216, 3217, 3222, 3223, 3308, 3309
2349, 3131, 3132, 3177, 3216, 3223, 3224, 3269, 3308
2350, 3180, 3178, 3177, 3185, 3272, 3270, 3269, 3277
2351, 3134, 3180, 3186, 3143, 3226, 3272, 3278, 3235
2352, 3136, 3175, 3174, 3137, 3228, 3267, 3266, 3229
2353, 3214, 3139, 3138, 3182, 3306, 3231, 3230, 3274
2354, 3141, 3158, 3215, 3181, 3233, 3250, 3307, 3273
2355, 3143, 3186, 3189, 3144, 3235, 3278, 3281, 3236
2356, 3144, 3189, 3190, 3145, 3236, 3281, 3282, 3237
2357, 3145, 3190, 3191, 3146, 3237, 3282, 3283, 3238
2358, 3146, 3191, 3192, 3147, 3238, 3283, 3284, 3239
2359, 3147, 3192, 3193, 3148, 3239, 3284, 3285, 3240
2360, 3148, 3193, 3194, 3149, 3240, 3285, 3286, 3241
2361, 3149, 3194, 3195, 3150, 3241, 3286, 3287, 3242
2362, 3150, 3195, 3196, 3151, 3242, 3287, 3288, 3243
2363, 3151, 3196, 3197, 3152, 3243, 3288, 3289, 3244
2364, 3152, 3197, 3207, 3153, 3244, 3289, 3299, 3245
2365, 3153, 3207, 3208, 3154, 3245, 3299, 3300, 3246
2366, 3154, 3208, 3209, 3155, 3246, 3300, 3301, 3247
2367, 3174, 3175, 3213, 3179, 3266, 3267, 3305, 3271
2368, 3173, 3140, 3139, 3214, 3265, 3232, 3231, 3306
2369, 3183, 3142, 3141, 3181, 3275, 3234, 3233, 3273
2370, 3185, 3176, 3188, 3206, 3277, 3268, 3280, 3298
2371, 3186, 3206, 3210, 3189, 3278, 3298, 3302, 3281
2372, 3189, 3210, 3198, 3190, 3281, 3302, 3290, 3282
2373, 3190, 3198, 3199, 3191, 3282, 3290, 3291, 3283
2374, 3191, 3199, 3200, 3192, 3283, 3291, 3292, 3284
2375, 3192, 3200, 3201, 3193, 3284, 3292, 3293, 3285
2376, 3193, 3201, 3202, 3194, 3285, 3293, 3294, 3286
2377, 3194, 3202, 3203, 3195, 3286, 3294, 3295, 3287
2378, 3195, 3203, 3204, 3196, 3287, 3295, 3296, 3288
2379, 3196, 3204, 3205, 3197, 3288, 3296, 3297, 3289
2380, 3170, 3211, 3205, 3169, 3262, 3303, 3297, 3261
2381, 3207, 3211, 3212, 3208, 3299, 3303, 3304, 3300
2382, 3184, 3209, 3187, 3220, 3276, 3301, 3279, 3312
2383, 3138, 3157, 3219, 3182, 3230, 3249, 3311, 3274
2384, 3156, 3184, 3175, 3136, 3248, 3276, 3267, 3228
2385, 3178, 3217, 3216, 3177, 3270, 3309, 3308, 3269
2386, 3218, 3133, 3135, 3176, 3310, 3225, 3227, 3268
2387, 3180, 3134, 3129, 3178, 3272, 3226, 3221, 3270
2388, 3215, 3173, 3179, 3181, 3307, 3265, 3271, 3273
2389, 3179, 3213, 3183, 3181, 3271, 3305, 3275, 3273
2390, 3206, 3186, 3180, 3185, 3298, 3278, 3272, 3277
2391, 3187, 3172, 3142, 3183, 3279, 3264, 3234, 3275
2392, 3214, 3182, 3219, 3173, 3306, 3274, 3311, 3265
2393, 3212, 3171, 3172, 3187, 3304, 3263, 3264, 3279
2394, 3184, 3220, 3213, 3175, 3276, 3312, 3305, 3267
2395, 3159, 3160, 3206, 3188, 3251, 3252, 3298, 3280
2396, 3171, 3212, 3211, 3170, 3263, 3304, 3303, 3262
2397, 3208, 3212, 3187, 3209, 3300, 3304, 3279, 3301
2398, 3188, 3176, 3135, 3159, 3280, 3268, 3227, 3251
2399, 3161, 3210, 3206, 3160, 3253, 3302, 3298, 3252
2400, 3163, 3199, 3198, 3162, 3255, 3291, 3290, 3254
2401, 3164, 3200, 3199, 3163, 3256, 3292, 3291, 3255
2402, 3165, 3201, 3200, 3164, 3257, 3293, 3292, 3256
2403, 3166, 3202, 3201, 3165, 3258, 3294, 3293, 3257
2404, 3167, 3203, 3202, 3166, 3259, 3295, 3294, 3258
2405, 3168, 3204, 3203, 3167, 3260, 3296, 3295, 3259
2406, 3169, 3205, 3204, 3168, 3261, 3297, 3296, 3260
2407, 3210, 3161, 3162, 3198, 3302, 3253, 3254, 3290
2408, 3211, 3207, 3197, 3205, 3303, 3299, 3289, 3297
2409, 3184, 3156, 3155, 3209, 3276, 3248, 3247, 3301
2410, 3183, 3213, 3220, 3187, 3275, 3305, 3312, 3279
2411, 3157, 3137, 3174, 3219, 3249, 3229, 3266, 3311
2412, 3158, 3140, 3173, 3215, 3250, 3232, 3265, 3307
2413, 3130, 3217, 3178, 3129, 3222, 3309, 3270, 3221
2414, 3218, 3176, 3185, 3177, 3310, 3268, 3277, 3269
2415, 3174, 3179, 3173, 3219, 3266, 3271, 3265, 3311
2416, 3269, 3224, 3225, 3310, 3361, 3316, 3317, 3402
2417, 3222, 3223, 3308, 3309, 3314, 3315, 3400, 3401
2418, 3223, 3224, 3269, 3308, 3315, 3316, 3361, 3400
2419, 3272, 3270, 3269, 3277, 3364, 3362, 3361, 3369
2420, 3226, 3272, 3278, 3235, 3318, 3364, 3370, 3327
2421, 3228, 3267, 3266, 3229, 3320, 3359, 3358, 3321
2422, 3306, 3231, 3230, 3274, 3398, 3323, 3322, 3366
2423, 3233, 3250, 3307, 3273, 3325, 3342, 3399, 3365
2424, 3235, 3278, 3281, 3236, 3327, 3370, 3373, 3328
2425, 3236, 3281, 3282, 3237, 3328, 3373, 3374, 3329
2426, 3237, 3282, 3283, 3238, 3329, 3374, 3375, 3330
2427, 3238, 3283, 3284, 3239, 3330, 3375, 3376, 3331
2428, 3239, 3284, 3285, 3240, 3331, 3376, 3377, 3332
2429, 3240, 3285, 3286, 3241, 3332, 3377, 3378, 3333
2430, 3241, 3286, 3287, 3242, 3333, 3378, 3379, 3334
2431, 3242, 3287, 3288, 3243, 3334, 3379, 3380, 3335
2432, 3243, 3288, 3289, 3244, 3335, 3380, 3381, 3336
2433, 3244, 3289, 3299, 3245, 3336, 3381, 3391, 3337
2434, 3245, 3299, 3300, 3246, 3337, 3391, 3392, 3338
2435, 3246, 3300, 3301, 3247, 3338, 3392, 3393, 3339
2436, 3266, 3267, 3305, 3271, 3358, 3359, 3397, 3363
2437, 3265, 3232, 3231, 3306, 3357, 3324, 3323, 3398
2438, 3275, 3234, 3233, 3273, 3367, 3326, 3325, 3365
2439, 3277, 3268, 3280, 3298, 3369, 3360, 3372, 3390
2440, 3278, 3298, 3302, 3281, 3370, 3390, 3394, 3373
2441, 3281, 3302, 3290, 3282, 3373, 3394, 3382, 3374
2442, 3282, 3290, 3291, 3283, 3374, 3382, 3383, 3375
2443, 3283, 3291, 3292, 3284, 3375, 3383, 3384, 3376
2444, 3284, 3292, 3293, 3285, 3376, 3384, 3385, 3377
2445, 3285, 3293, 3294, 3286, 3377, 3385, 3386, 3378
2446, 3286, 3294, 3295, 3287, 3378, 3386, 3387, 3379
2447, 3287, 3295, 3296, 3288, 3379, 3387, 3388, 3380
2448, 3288, 3296, 3297, 3289, 3380, 3388, 3389, 3381
2449, 3262, 3303, 3297, 3261, 3354, 3395, 3389, 3353
2450, 3299, 3303, 3304, 3300, 3391, 3395, 3396, 3392
2451, 3276, 3301, 3279, 3312, 3368, 3393, 3371, 3404
2452, 3230, 3249, 3311, 3274, 3322, 3341, 3403, 3366
2453, 3248, 3276, 3267, 3228, 3340, 3368, 3359, 3320
2454, 3270, 3309, 3308, 3269, 3362, 3401, 3400, 3361
2455, 3310, 3225, 3227, 3268, 3402, 3317, 3319, 3360
2456, 3272, 3226, 3221, 3270, 3364, 3318, 3313, 3362
2457, 3307, 3265, 3271, 3273, 3399, 3357, 3363, 3365
2458, 3271, 3305, 3275, 3273, 3363, 3397, 3367, 3365
2459, 3298, 3278, 3272, 3277, 3390, 3370, 3364, 3369
2460, 3279, 3264, 3234, 3275, 3371, 3356, 3326, 3367
2461, 3306, 3274, 3311, 3265, 3398, 3366, 3403, 3357
2462, 3304, 3263, 3264, 3279, 3396, 3355, 3356, 3371
2463, 3276, 3312, 3305, 3267, 3368, 3404, 3397, 3359
2464, 3251, 3252, 3298, 3280, 3343, 3344, 3390, 3372
2465, 3263, 3304, 3303, 3262, 3355, 3396, 3395, 3354
2466, 3300, 3304, 3279, 3301, 3392, 3396, 3371, 3393
2467, 3280, 3268, 3227, 3251, 3372, 3360, 3319, 3343
2468, 3253, 3302, 3298, 3252, 3345, 3394, 3390, 3344
2469, 3255, 3291, 3290, 3254, 3347, 3383, 3382, 3346
2470, 3256, 3292, 3291, 3255, 3348, 3384, 3383, 3347
2471, 3257, 3293, 3292, 3256, 3349, 3385, 3384, 3348
2472, 3258, 3294, 3293, 3257, 3350, 3386, 3385, 3349
2473, 3259, 3295, 3294, 3258, 3351, 3387, 3386, 3350
2474, 3260, 3296, 3295, 3259, 3352, 3388, 3387, 3351
2475, 3261, 3297, 3296, 3260, 3353, 3389, 3388, 3352
2476, 3302, 3253, 3254, 3290, 3394, 3345, 3346, 3382
2477, 3303, 3299, 3289, 3297, 3395, 3391, 3381, 3389
2478, 3276, 3248, 3247, 3301, 3368, 3340, 3339, 3393
2479, 3275, 3305, 3312, 3279, 3367, 3397, 3404, 3371
2480, 3249, 3229, 3266, 3311, 3341, 3321, 3358, 3403
2481, 3250, 3232, 3265, 3307, 3342, 3324, 3357, 3399
2482, 3222, 3309, 3270, 3221, 3314, 3401, 3362, 3313
2483, 3310, 3268, 3277, 3269, 3402, 3360, 3369, 3361
2484, 3266, 3271, 3265, 3311, 3358, 3363, 3357, 3403
2485, 3361, 3316, 3317, 3402, 3453, 3408, 3409, 3494
2486, 3314, 3315, 3400, 3401, 3406, 3407, 3492, 3493
2487, 3315, 3316, 3361, 3400, 3407, 3408, 3453, 3492
2488, 3364, 3362, 3361, 3369, 3456, 3454, 3453, 3461
2489, 3318, 3364, 3370, 3327, 3410, 3456, 3462, 3419
2490, 3320, 3359, 3358, 3321, 3412, 3451, 3450, 3413
2491, 3398, 3323, 3322, 3366, 3490, 3415, 3414, 3458
2492, 3325, 3342, 3399, 3365, 3417, 3434, 3491, 3457
2493, 3327, 3370, 3373, 3328, 3419, 3462, 3465, 3420
2494, 3328, 3373, 3374, 3329, 3420, 3465, 3466, 3421
2495, 3329, 3374, 3375, 3330, 3421, 3466, 3467, 3422
2496, 3330, 3375, 3376, 3331, 3422, 3467, 3468, 3423
2497, 3331, 3376, 3377, 3332, 3423, 3468, 3469, 3424
2498, 3332, 3377, 3378, 3333, 3424, 3469, 3470, 3425
2499, 3333, 3378, 3379, 3334, 3425, 3470, 3471, 3426
2500, 3334, 3379, 3380, 3335, 3426, 3471, 3472, 3427
2501, 3335, 3380, 3381, 3336, 3427, 3472, 3473, 3428
2502, 3336, 3381, 3391, 3337, 3428, 3473, 3483, 3429
2503, 3337, 3391, 3392, 3338, 3429, 3483, 3484, 3430
2504, 3338, 3392, 3393, 3339, 3430, 3484, 3485, 3431
2505, 3358, 3359, 3397, 3363, 3450, 3451, 3489, 3455
2506, 3357, 3324, 3323, 3398, 3449, 3416, 3415, 3490
2507, 3367, 3326, 3325, 3365, 3459, 3418, 3417, 3457
2508, 3369, 3360, 3372, 3390, 3461, 3452, 3464, 3482
2509, 3370, 3390, 3394, 3373, 3462, 3482, 3486, 3465
2510, 3373, 3394, 3382, 3374, 3465, 3486, 3474, 3466
2511, 3374, 3382, 3383, 3375, 3466, 3474, 3475, 3467
2512, 3375, 3383, 3384, 3376, 3467, 3475, 3476, 3468
2513, 3376, 3384, 3385, 3377, 3468, 3476, 3477, 3469
2514, 3377, 3385, 3386, 3378, 3469, 3477, 3478, 3470
2515, 3378, 3386, 3387, 3379, 3470, 3478, 3479, 3471
2516, 3379, 3387, 3388, 3380, 3471, 3479, 3480, 3472
2517, 3380, 3388, 3389, 3381, 3472, 3480, 3481, 3473
2518, 3354, 3395, 3389, 3353, 3446, 3487, 3481, 3445
2519, 3391, 3395, 3396, 3392, 3483, 3487, 3488, 3484
2520, 3368, 3393, 3371, 3404, 3460, 3485, 3463, 3496
2521, 3322, 3341, 3403, 3366, 3414, 3433, 3495, 3458
2522, 3340, 3368, 3359, 3320, 3432, 3460, 3451, 3412
2523, 3362, 3401, 3400, 3361, 3454, 3493, 3492, 3453
2524, 3402, 3317, 3319, 3360, 3494, 3409, 3411, 3452
2525, 3364, 3318, 3313, 3362, 3456, 3410, 3405, 3454
2526, 3399, 3357, 3363, 3365, 3491, 3449, 3455, 3457
2527, 3363, 3397, 3367, 3365, 3455, 3489, 3459, 3457
2528, 3390, 3370, 3364, 3369, 3482, 3462, 3456, 3461
2529, 3371, 3356, 3326, 3367, 3463, 3448, 3418, 3459
2530, 3398, 3366, 3403, 3357, 3490, 3458, 3495, 3449
2531, 3396, 3355, 3356, 3371, 3488, 3447, 3448, 3463
2532, 3368, 3404, 3397, 3359, 3460, 3496, 3489, 3451
2533, 3343, 3344, 3390, 3372, 3435, 3436, 3482, 3464
2534, 3355, 3396, 3395, 3354, 3447, 3488, 3487, 3446
2535, 3392, 3396, 3371, 3393, 3484, 3488, 3463, 3485
2536, 3372, 3360, 3319, 3343, 3464, 3452, 3411, 3435
2537, 3345, 3394, 3390, 3344, 3437, 3486, 3482, 3436
2538, 3347, 3383, 3382, 3346, 3439, 3475, 3474, 3438
2539, 3348, 3384, 3383, 3347, 3440, 3476, 3475, 3439
2540, 3349, 3385, 3384, 3348, 3441, 3477, 3476, 3440
2541, 3350, 3386, 3385, 3349, 3442, 3478, 3477, 3441
2542, 3351, 3387, 3386, 3350, 3443, 3479, 3478, 3442
2543, 3352, 3388, 3387, 3351, 3444, 3480, 3479, 3443
2544, 3353, 3389, 3388, 3352, 3445, 3481, 3480, 3444
2545, 3394, 3345, 3346, 3382, 3486, 3437, 3438, 3474
2546, 3395, 3391, 3381, 3389, 3487, 3483, 3473, 3481
2547, 3368, 3340, 3339, 3393, 3460, 3432, 3431, 3485
2548, 3367, 3397, 3404, 3371, 3459, 3489, 3496, 3463
2549, 3341, 3321, 3358, 3403, 3433, 3413, 3450, 3495
2550, 3342, 3324, 3357, 3399, 3434, 3416, 3449, 3491
2551, 3314, 3401, 3362, 3313, 3406, 3493, 3454, 3405
2552, 3402, 3360, 3369, 3361, 3494, 3452, 3461, 3453
2553, 3358, 3363, 3357, 3403, 3450, 3455, 3449, 3495
2554, 3453, 3408, 3409, 3494, 3545, 3500, 3501, 3586
2555, 3406, 3407, 3492, 3493, 3498, 3499, 3584, 3585
2556, 3407, 3408, 3453, 3492, 3499, 3500, 3545, 3584
2557, 3456, 3454, 3453, 3461, 3548, 3546, 3545, 3553
2558, 3410, 3456, 3462, 3419, 3502, 3548, 3554, 3511
2559, 3412, 3451, 3450, 3413, 3504, 3543, 3542, 3505
2560, 3490, 3415, 3414, 3458, 3582, 3507, 3506, 3550
2561, 3417, 3434, 3491, 3457, 3509, 3526, 3583, 3549
2562, 3419, 3462, 3465, 3420, 3511, 3554, 3557, 3512
2563, 3420, 3465, 3466, 3421, 3512, 3557, 3558, 3513
2564, 3421, 3466, 3467, 3422, 3513, 3558, 3559, 3514
2565, 3422, 3467, 3468, 3423, 3514, 3559, 3560, 3515
2566, 3423, 3468, 3469, 3424, 3515, 3560, 3561, 3516
2567, 3424, 3469, 3470, 3425, 3516, 3561, 3562, 3517
2568, 3425, 3470, 3471, 3426, 3517, 3562, 3563, 3518
2569, 3426, 3471, 3472, 3427, 3518, 3563, 3564, 3519
2570, 3427, 3472, 3473, 3428, 3519, 3564, 3565, 3520
2571, 3428, 3473, 3483, 3429, 3520, 3565, 3575, 3521
2572, 3429, 3483, 3484, 3430, 3521, 3575, 3576, 3522
2573, 3430, 3484, 3485, 3431, 3522, 3576, 3577, 3523
2574, 3450, 3451, 3489, 3455, 3542, 3543, 3581, 3547
2575, 3449, 3416, 3415, 3490, 3541, 3508, 3507, 3582
2576, 3459, 3418, 3417, 3457, 3551, 3510, 3509, 3549
2577, 3461, 3452, 3464, 3482, 3553, 3544, 3556, 3574
2578, 3462, 3482, 3486, 3465, 3554, 3574, 3578, 3557
2579, 3465, 3486, 3474, 3466, 3557, 3578, 3566, 3558
2580, 3466, 3474, 3475, 3467, 3558, 3566, 3567, 3559
2581, 3467, 3475, 3476, 3468, 3559, 3567, 3568, 3560
2582, 3468, 3476, 3477, 3469, 3560, 3568, 3569, 3561
2583, 3469, 3477, 3478, 3470, 3561, 3569, 3570, 3562
2584, 3470, 3478, 3479, 3471, 3562, 3570, 3571, 3563
2585, 3471, 3479, 3480, 3472, 3563, 3571, 3572, 3564
2586, 3472, 3480, 3481, 3473, 3564, 3572, 3573, 3565
2587, 3446, 3487, 3481, 3445, 3538, 3579, 3573, 3537
2588, 3483, 3487, 3488, 3484, 3575, 3579, 3580, 3576
2589, 3460, 3485, 3463, 3496, 3552, 3577, 3555, 3588
2590, 3414, 3433, 3495, 3458, 3506, 3525, 3587, 3550
2591, 3432, 3460, 3451, 3412, 3524, 3552, 3543, 3504
2592, 3454, 3493, 3492, 3453, 3546, 3585, 3584, 3545
2593, 3494, 3409, 3411, 3452, 3586, 3501, 3503, 3544
2594, 3456, 3410, 3405, 3454, 3548, 3502, 3497, 3546
2595, 3491, 3449, 3455, 3457, 3583, 3541, 3547, 3549
2596, 3455, 3489, 3459, 3457, 3547, 3581, 3551, 3549
2597, 3482, 3462, 3456, 3461, 3574, 3554, 3548, 3553
2598, 3463, 3448, 3418, 3459, 3555, 3540, 3510, 3551
2599, 3490, 3458, 3495, 3449, 3582, 3550, 3587, 3541
2600, 3488, 3447, 3448, 3463, 3580, 3539, 3540, 3555
2601, 3460, 3496, 3489, 3451, 3552, 3588, 3581, 3543
2602, 3435, 3436, 3482, 3464, 3527, 3528, 3574, 3556
2603, 3447, 3488, 3487, 3446, 3539, 3580, 3579, 3538
2604, 3484, 3488, 3463, 3485, 3576, 3580, 3555, 3577
2605, 3464, 3452, 3411, 3435, 3556, 3544, 3503, 3527
2606, 3437, 3486, 3482, 3436, 3529, 3578, 3574, 3528
2607, 3439, 3475, 3474, 3438, 3531, 3567, 3566, 3530
2608, 3440, 3476, 3475, 3439, 3532, 3568, 3567, 3531
2609, 3441, 3477, 3476, 3440, 3533, 3569, 3568, 3532
2610, 3442, 3478, 3477, 3441, 3534, 3570, 3569, 3533
2611, 3443, 3479, 3478, 3442, 3535, 3571, 3570, 3534
2612, 3444, 3480, 3479, 3443, 3536, 3572, 3571, 3535
2613, 3445, 3481, 3480, 3444, 3537, 3573, 3572, 3536
2614, 3486, 3437, 3438, 3474, 3578, 3529, 3530, 3566
2615, 3487, 3483, 3473, 3481, 3579, 3575, 3565, 3573
2616, 3460, 3432, 3431, 3485, 3552, 3524, 3523, 3577
2617, 3459, 3489, 3496, 3463, 3551, 3581, 3588, 3555
2618, 3433, 3413, 3450, 3495, 3525, 3505, 3542, 3587
2619, 3434, 3416, 3449, 3491, 3526, 3508, 3541, 3583
2620, 3406, 3493, 3454, 3405, 3498, 3585, 3546, 3497
2621, 3494, 3452, 3461, 3453, 3586, 3544, 3553, 3545
2622, 3450, 3455, 3449, 3495, 3542, 3547, 3541, 3587
2623, 3545, 3500, 3501, 3586, 3637, 3592, 3593, 3678
2624, 3498, 3499, 3584, 3585, 3590, 3591, 3676, 3677
2625, 3499, 3500, 3545, 3584, 3591, 3592, 3637, 3676
2626, 3548, 3546, 3545, 3553, 3640, 3638, 3637, 3645
2627, 3502, 3548, 3554, 3511, 3594, 3640, 3646, 3603
2628, 3504, 3543, 3542, 3505, 3596, 3635, 3634, 3597
2629, 3582, 3507, 3506, 3550, 3674, 3599, 3598, 3642
2630, 3509, 3526, 3583, 3549, 3601, 3618, 3675, 3641
2631, 3511, 3554, 3557, 3512, 3603, 3646, 3649, 3604
2632, 3512, 3557, 3558, 3513, 3604, 3649, 3650, 3605
2633, 3513, 3558, 3559, 3514, 3605, 3650, 3651, 3606
2634, 3514, 3559, 3560, 3515, 3606, 3651, 3652, 3607
2635, 3515, 3560, 3561, 3516, 3607, 3652, 3653, 3608
2636, 3516, 3561, 3562, 3517, 3608, 3653, 3654, 3609
2637, 3517, 3562, 3563, 3518, 3609, 3654, 3655, 3610
2638, 3518, 3563, 3564, 3519, 3610, 3655, 3656, 3611
2639, 3519, 3564, 3565, 3520, 3611, 3656, 3657, 3612
2640, 3520, 3565, 3575, 3521, 3612, 3657, 3667, 3613
2641, 3521, 3575, 3576, 3522, 3613, 3667, 3668, 3614
2642, 3522, 3576, 3577, 3523, 3614, 3668, 3669, 3615
2643, 3542, 3543, 3581, 3547, 3634, 3635, 3673, 3639
2644, 3541, 3508, 3507, 3582, 3633, 3600, 3599, 3674
2645, 3551, 3510, 3509, 3549, 3643, 3602, 3601, 3641
2646, 3553, 3544, 3556, 3574, 3645, 3636, 3648, 3666
2647, 3554, 3574, 3578, 3557, 3646, 3666, 3670, 3649
2648, 3557, 3578, 3566, 3558, 3649, 3670, 3658, 3650
2649, 3558, 3566, 3567, 3559, 3650, 3658, 3659, 3651
2650, 3559, 3567, 3568, 3560, 3651, 3659, 3660, 3652
2651, 3560, 3568, 3569, 3561, 3652, 3660, 3661, 3653
2652, 3561, 3569, 3570, 3562, 3653, 3661, 3662, 3654
2653, 3562, 3570, 3571, 3563, 3654, 3662, 3663, 3655
2654, 3563, 3571, 3572, 3564, 3655, 3663, 3664, 3656
2655, 3564, 3572, 3573, 3565, 3656, 3664, 3665, 3657
2656, 3538, 3579, 3573, 3537, 3630, 3671, 3665, 3629
2657, 3575, 3579, 3580, 3576, 3667, 3671, 3672, 3668
2658, 3552, 3577, 3555, 3588, 3644, 3669, 3647, 3680
2659, 3506, 3525, 3587, 3550, 3598, 3617, 3679, 3642
2660, 3524, 3552, 3543, 3504, 3616, 3644, 3635, 3596
2661, 3546, 3585, 3584, 3545, 3638, 3677, 3676, 3637
2662, 3586, 3501, 3503, 3544, 3678, 3593, 3595, 3636
2663, 3548, 3502, 3497, 3546, 3640, 3594, 3589, 3638
2664, 3583, 3541, 3547, 3549, 3675, 3633, 3639, 3641
2665, 3547, 3581, 3551, 3549, 3639, 3673, 3643, 3641
2666, 3574, 3554, 3548, 3553, 3666, 3646, 3640, 3645
2667, 3555, 3540, 3510, 3551, 3647, 3632, 3602, 3643
2668, 3582, 3550, 3587, 3541, 3674, 3642, 3679, 3633
2669, 3580, 3539, 3540, 3555, 3672, 3631, 3632, 3647
2670, 3552, 3588, 3581, 3543, 3644, 3680, 3673, 3635
2671, 3527, 3528, 3574, 3556, 3619, 3620, 3666, 3648
2672, 3539, 3580, 3579, 3538, 3631, 3672, 3671, 3630
2673, 3576, 3580, 3555, 3577, 3668, 3672, 3647, 3669
2674, 3556, 3544, 3503, 3527, 3648, 3636, 3595, 3619
2675, 3529, 3578, 3574, 3528, 3621, 3670, 3666, 3620
2676, 3531, 3567, 3566, 3530, 3623, 3659, 3658, 3622
2677, 3532, 3568, 3567, 3531, 3624, 3660, 3659, 3623
2678, 3533, 3569, 3568, 3532, 3625, 3661, 3660, 3624
2679, 3534, 3570, 3569, 3533, 3626, 3662, 3661, 3625
2680, 3535, 3571, 3570, 3534, 3627, 3663, 3662, 3626
2681, 3536, 3572, 3571, 3535, 3628, 3664, 3663, 3627
2682, 3537, 3573, 3572, 3536, 3629, 3665, 3664, 3628
2683, 3578, 3529, 3530, 3566, 3670, 3621, 3622, 3658
2684, 3579, 3575, 3565, 3573, 3671, 3667, 3657, 3665
2685, 3552, 3524, 3523, 3577, 3644, 3616, 3615, 3669
2686, 3551, 3581, 3588, 3555, 3643, 3673, 3680, 3647
2687, 3525, 3505, 3542, 3587, 3617, 3597, 3634, 3679
2688, 3526, 3508, 3541, 3583, 3618, 3600, 3633, 3675
2689, 3498, 3585, 3546, 3497, 3590, 3677, 3638, 3589
2690, 3586, 3544, 3553, 3545, 3678, 3636, 3645, 3637
2691, 3542, 3547, 3541, 3587, 3634, 3639, 3633, 3679
2692, 3637, 3592, 3593, 3678, 3729, 3684, 3685, 3770
2693, 3590, 3591, 3676, 3677, 3682, 3683, 3768, 3769
2694, 3591, 3592, 3637, 3676, 3683, 3684, 3729, 3768
2695, 3640, 3638, 3637, 3645, 3732, 3730, 3729, 3737
2696, 3594, 3640, 3646, 3603, 3686, 3732, 3738, 3695
2697, 3596, 3635, 3634, 3597, 3688, 3727, 3726, 3689
2698, 3674, 3599, 3598, 3642, 3766, 3691, 3690, 3734
2699, 3601, 3618, 3675, 3641, 3693, 3710, 3767, 3733
2700, 3603, 3646, 3649, 3604, 3695, 3738, 3741, 3696
2701, 3604, 3649, 3650, 3605, 3696, 3741, 3742, 3697
2702, 3605, 3650, 3651, 3606, 3697, 3742, 3743, 3698
2703, 3606, 3651, 3652, 3607, 3698, 3743, 3744, 3699
2704, 3607, 3652, 3653, 3608, 3699, 3744, 3745, 3700
2705, 3608, 3653, 3654, 3609, 3700, 3745, 3746, 3701
2706, 3609, 3654, 3655, 3610, 3701, 3746, 3747, 3702
2707, 3610, 3655, 3656, 3611, 3702, 3747, 3748, 3703
2708, 3611, 3656, 3657, 3612, 3703, 3748, 3749, 3704
2709, 3612, 3657, 3667, 3613, 3704, 3749, 3759, 3705
2710, 3613, 3667, 3668, 3614, 3705, 3759, 3760, 3706
2711, 3614, 3668, 3669, 3615, 3706, 3760, 3761, 3707
2712, 3634, 3635, 3673, 3639, 3726, 3727, 3765, 3731
2713, 3633, 3600, 3599, 3674, 3725, 3692, 3691, 3766
2714, 3643, 3602, 3601, 3641, 3735, 3694, 3693, 3733
2715, 3645, 3636, 3648, 3666, 3737, 3728, 3740, 3758
2716, 3646, 3666, 3670, 3649, 3738, 3758, 3762, 3741
2717, 3649, 3670, 3658, 3650, 3741, 3762, 3750, 3742
2718, 3650, 3658, 3659, 3651, 3742, 3750, 3751, 3743
2719, 3651, 3659, 3660, 3652, 3743, 3751, 3752, 3744
2720, 3652, 3660, 3661, 3653, 3744, 3752, 3753, 3745
2721, 3653, 3661, 3662, 3654, 3745, 3753, 3754, 3746
2722, 3654, 3662, 3663, 3655, 3746, 3754, 3755, 3747
2723, 3655, 3663, 3664, 3656, 3747, 3755, 3756, 3748
2724, 3656, 3664, 3665, 3657, 3748, 3756, 3757, 3749
2725, 3630, 3671, 3665, 3629, 3722, 3763, 3757, 3721
2726, 3667, 3671, 3672, 3668, 3759, 3763, 3764, 3760
2727, 3644, 3669, 3647, 3680, 3736, 3761, 3739, 3772
2728, 3598, 3617, 3679, 3642, 3690, 3709, 3771, 3734
2729, 3616, 3644, 3635, 3596, 3708, 3736, 3727, 3688
2730, 3638, 3677, 3676, 3637, 3730, 3769, 3768, 3729
2731, 3678, 3593, 3595, 3636, 3770, 3685, 3687, 3728
2732, 3640, 3594, 3589, 3638, 3732, 3686, 3681, 3730
2733, 3675, 3633, 3639, 3641, 3767, 3725, 3731, 3733
2734, 3639, 3673, 3643, 3641, 3731, 3765, 3735, 3733
2735, 3666, 3646, 3640, 3645, 3758, 3738, 3732, 3737
2736, 3647, 3632, 3602, 3643, 3739, 3724, 3694, 3735
2737, 3674, 3642, 3679, 3633, 3766, 3734, 3771, 3725
2738, 3672, 3631, 3632, 3647, 3764, 3723, 3724, 3739
2739, 3644, 3680, 3673, 3635, 3736, 3772, 3765, 3727
2740, 3619, 3620, 3666, 3648, 3711, 3712, 3758, 3740
2741, 3631, 3672, 3671, 3630, 3723, 3764, 3763, 3722
2742, 3668, 3672, 3647, 3669, 3760, 3764, 3739, 3761
2743, 3648, 3636, 3595, 3619, 3740, 3728, 3687, 3711
2744, 3621, 3670, 3666, 3620, 3713, 3762, 3758, 3712
2745, 3623, 3659, 3658, 3622, 3715, 3751, 3750, 3714
2746, 3624, 3660, 3659, 3623, 3716, 3752, 3751, 3715
2747, 3625, 3661, 3660, 3624, 3717, 3753, 3752, 3716
2748, 3626, 3662, 3661, 3625, 3718, 3754, 3753, 3717
2749, 3627, 3663, 3662, 3626, 3719, 3755, 3754, 3718
2750, 3628, 3664, 3663, 3627, 3720, 3756, 3755, 3719
2751, 3629, 3665, 3664, 3628, 3721, 3757, 3756, 3720
2752, 3670, 3621, 3622, 3658, 3762, 3713, 3714, 3750
2753, 3671, 3667, 3657, 3665, 3763, 3759, 3749, 3757
2754, 3644, 3616, 3615, 3669, 3736, 3708, 3707, 3761
2755, 3643, 3673, 3680, 3647, 3735, 3765, 3772, 3739
2756, 3617, 3597, 3634, 3679, 3709, 3689, 3726, 3771
2757, 3618, 3600, 3633, 3675, 3710, 3692, 3725, 3767
2758, 3590, 3677, 3638, 3589, 3682, 3769, 3730, 3681
2759, 3678, 3636, 3645, 3637, 3770, 3728, 3737, 3729
2760, 3634, 3639, 3633, 3679, 3726, 3731, 3725, 3771
2761, 3729, 3684, 3685, 3770, 3821, 3776, 3777, 3862
2762, 3682, 3683, 3768, 3769, 3774, 3775, 3860, 3861
2763, 3683, 3684, 3729, 3768, 3775, 3776, 3821, 3860
2764, 3732, 3730, 3729, 3737, 3824, 3822, 3821, 3829
2765, 3686, 3732, 3738, 3695, 3778, 3824, 3830, 3787
2766, 3688, 3727, 3726, 3689, 3780, 3819, 3818, 3781
2767, 3766, 3691, 3690, 3734, 3858, 3783, 3782, 3826
2768, 3693, 3710, 3767, 3733, 3785, 3802, 3859, 3825
2769, 3695, 3738, 3741, 3696, 3787, 3830, 3833, 3788
2770, 3696, 3741, 3742, 3697, 3788, 3833, 3834, 3789
2771, 3697, 3742, 3743, 3698, 3789, 3834, 3835, 3790
2772, 3698, 3743, 3744, 3699, 3790, 3835, 3836, 3791
2773, 3699, 3744, 3745, 3700, 3791, 3836, 3837, 3792
2774, 3700, 3745, 3746, 3701, 3792, 3837, 3838, 3793
2775, 3701, 3746, 3747, 3702, 3793, 3838, 3839, 3794
2776, 3702, 3747, 3748, 3703, 3794, 3839, 3840, 3795
2777, 3703, 3748, 3749, 3704, 3795, 3840, 3841, 3796
2778, 3704, 3749, 3759, 3705, 3796, 3841, 3851, 3797
2779, 3705, 3759, 3760, 3706, 3797, 3851, 3852, 3798
2780, 3706, 3760, 3761, 3707, 3798, 3852, 3853, 3799
2781, 3726, 3727, 3765, 3731, 3818, 3819, 3857, 3823
2782, 3725, 3692, 3691, 3766, 3817, 3784, 3783, 3858
2783, 3735, 3694, 3693, 3733, 3827, 3786, 3785, 3825
2784, 3737, 3728, 3740, 3758, 3829, 3820, 3832, 3850
2785, 3738, 3758, 3762, 3741, 3830, 3850, 3854, 3833
2786, 3741, 3762, 3750, 3742, 3833, 3854, 3842, 3834
2787, 3742, 3750, 3751, 3743, 3834, 3842, 3843, 3835
2788, 3743, 3751, 3752, 3744, 3835, 3843, 3844, 3836
2789, 3744, 3752, 3753, 3745, 3836, 3844, 3845, 3837
2790, 3745, 3753, 3754, 3746, 3837, 3845, 3846, 3838
2791, 3746, 3754, 3755, 3747, 3838, 3846, 3847, 3839
2792, 3747, 3755, 3756, 3748, 3839, 3847, 3848, 3840
2793, 3748, 3756, 3757, 3749, 3840, 3848, 3849, 3841
2794, 3722, 3763, 3757, 3721, 3814, 3855, 3849, 3813
2795, 3759, 3763, 3764, 3760, 3851, 3855, 3856, 3852
2796, 3736, 3761, 3739, 3772, 3828, 3853, 3831, 3864
2797, 3690, 3709, 3771, 3734, 3782, 3801, 3863, 3826
2798, 3708, 3736, 3727, 3688, 3800, 3828, 3819, 3780
2799, 3730, 3769, 3768, 3729, 3822, 3861, 3860, 3821
2800, 3770, 3685, 3687, 3728, 3862, 3777, 3779, 3820
2801, 3732, 3686, 3681, 3730, 3824, 3778, 3773, 3822
2802, 3767, 3725, 3731, 3733, 3859, 3817, 3823, 3825
2803, 3731, 3765, 3735, 3733, 3823, 3857, 3827, 3825
2804, 3758, 3738, 3732, 3737, 3850, 3830, 3824, 3829
2805, 3739, 3724, 3694, 3735, 3831, 3816, 3786, 3827
2806, 3766, 3734, 3771, 3725, 3858, 3826, 3863, 3817
2807, 3764, 3723, 3724, 3739, 3856, 3815, 3816, 3831
2808, 3736, 3772, 3765, 3727, 3828, 3864, 3857, 3819
2809, 3711, 3712, 3758, 3740, 3803, 3804, 3850, 3832
2810, 3723, 3764, 3763, 3722, 3815, 3856, 3855, 3814
2811, 3760, 3764, 3739, 3761, 3852, 3856, 3831, 3853
2812, 3740, 3728, 3687, 3711, 3832, 3820, 3779, 3803
2813, 3713, 3762, 3758, 3712, 3805, 3854, 3850, 3804
2814, 3715, 3751, 3750, 3714, 3807, 3843, 3842, 3806
2815, 3716, 3752, 3751, 3715, 3808, 3844, 3843, 3807
2816, 3717, 3753, 3752, 3716, 3809, 3845, 3844, 3808
2817, 3718, 3754, 3753, 3717, 3810, 3846, 3845, 3809
2818, 3719, 3755, 3754, 3718, 3811, 3847, 3846, 3810
2819, 3720, 3756, 3755, 3719, 3812, 3848, 3847, 3811
2820, 3721, 3757, 3756, 3720, 3813, 3849, 3848, 3812
2821, 3762, 3713, 3714, 3750, 3854, 3805, 3806, 3842
2822, 3763, 3759, 3749, 3757, 3855, 3851, 3841, 3849
2823, 3736, 3708, 3707, 3761, 3828, 3800, 3799, 3853
2824, 3735, 3765, 3772, 3739, 3827, 3857, 3864, 3831
2825, 3709, 3689, 3726, 3771, 3801, 3781, 3818, 3863
2826, 3710, 3692, 3725, 3767, 3802, 3784, 3817, 3859
2827, 3682, 3769, 3730, 3681, 3774, 3861, 3822, 3773
2828, 3770, 3728, 3737, 3729, 3862, 3820, 3829, 3821
2829, 3726, 3731, 3725, 3771, 3818, 3823, 3817, 3863
2830, 3821, 3776, 3777, 3862, 3913, 3868, 3869, 3954
2831, 3774, 3775, 3860, 3861, 3866, 3867, 3952, 3953
2832, 3775, 3776, 3821, 3860, 3867, 3868, 3913, 3952
2833, 3824, 3822, 3821, 3829, 3916, 3914, 3913, 3921
2834, 3778, 3824, 3830, 3787, 3870, 3916, 3922, 3879
2835, 3780, 3819, 3818, 3781, 3872, 3911, 3910, 3873
2836, 3858, 3783, 3782, 3826, 3950, 3875, 3874, 3918
2837, 3785, 3802, 3859, 3825, 3877, 3894, 3951, 3917
2838, 3787, 3830, 3833, 3788, 3879, 3922, 3925, 3880
2839, 3788, 3833, 3834, 3789, 3880, 3925, 3926, 3881
2840, 3789, 3834, 3835, 3790, 3881, 3926, 3927, 3882
2841, 3790, 3835, 3836, 3791, 3882, 3927, 3928, 3883
2842, 3791, 3836, 3837, 3792, 3883, 3928, 3929, 3884
2843, 3792, 3837, 3838, 3793, 3884, 3929, 3930, 3885
2844, 3793, 3838, 3839, 3794, 3885, 3930, 3931, 3886
2845, 3794, 3839, 3840, 3795, 3886, 3931, 3932, 3887
2846, 3795, 3840, 3841, 3796, 3887, 3932, 3933, 3888
2847, 3796, 3841, 3851, 3797, 3888, 3933, 3943, 3889
2848, 3797, 3851, 3852, 3798, 3889, 3943, 3944, 3890
2849, 3798, 3852, 3853, 3799, 3890, 3944, 3945, 3891
2850, 3818, 3819, 3857, 3823, 3910, 3911, 3949, 3915
2851, 3817, 3784, 3783, 3858, 3909, 3876, 3875, 3950
2852, 3827, 3786, 3785, 3825, 3919, 3878, 3877, 3917
2853, 3829, 3820, 3832, 3850, 3921, 3912, 3924, 3942
2854, 3830, 3850, 3854, 3833, 3922, 3942, 3946, 3925
2855, 3833, 3854, 3842, 3834, 3925, 3946, 3934, 3926
2856, 3834, 3842, 3843, 3835, 3926, 3934, 3935, 3927
2857, 3835, 3843, 3844, 3836, 3927, 3935, 3936, 3928
2858, 3836, 3844, 3845, 3837, 3928, 3936, 3937, 3929
2859, 3837, 3845, 3846, 3838, 3929, 3937, 3938, 3930
2860, 3838, 3846, 3847, 3839, 3930, 3938, 3939, 3931
2861, 3839, 3847, 3848, 3840, 3931, 3939, 3940, 3932
2862, 3840, 3848, 3849, 3841, 3932, 3940, 3941, 3933
2863, 3814, 3855, 3849, 3813, 3906, 3947, 3941, 3905
2864, 3851, 3855, 3856, 3852, 3943, 3947, 3948, 3944
2865, 3828, 3853, 3831, 3864, 3920, 3945, 3923, 3956
2866, 3782, 3801, 3863, 3826, 3874, 3893, 3955, 3918
2867, 3800, 3828, 3819, 3780, 3892, 3920, 3911, 3872
2868, 3822, 3861, 3860, 3821, 3914, 3953, 3952, 3913
2869, 3862, 3777, 3779, 3820, 3954, 3869, 3871, 3912
2870, 3824, 3778, 3773, 3822, 3916, 3870, 3865, 3914
2871, 3859, 3817, 3823, 3825, 3951, 3909, 3915, 3917
2872, 3823, 3857, 3827, 3825, 3915, 3949, 3919, 3917
2873, 3850, 3830, 3824, 3829, 3942, 3922, 3916, 3921
2874, 3831, 3816, 3786, 3827, 3923, 3908, 3878, 3919
2875, 3858, 3826, 3863, 3817, 3950, 3918, 3955, 3909
2876, 3856, 3815, 3816, 3831, 3948, 3907, 3908, 3923
2877, 3828, 3864, 3857, 3819, 3920, 3956, 3949, 3911
2878, 3803, 3804, 3850, 3832, 3895, 3896, 3942, 3924
2879, 3815, 3856, 3855, 3814, 3907, 3948, 3947, 3906
2880, 3852, 3856, 3831, 3853, 3944, 3948, 3923, 3945
2881, 3832, 3820, 3779, 3803, 3924, 3912, 3871, 3895
2882, 3805, 3854, 3850, 3804, 3897, 3946, 3942, 3896
2883, 3807, 3843, 3842, 3806, 3899, 3935, 3934, 3898
2884, 3808, 3844, 3843, 3807, 3900, 3936, 3935, 3899
2885, 3809, 3845, 3844, 3808, 3901, 3937, 3936, 3900
2886, 3810, 3846, 3845, 3809, 3902, 3938, 3937, 3901
2887, 3811, 3847, 3846, 3810, 3903, 3939, 3938, 3902
2888, 3812, 3848, 3847, 3811, 3904, 3940, 3939, 3903
2889, 3813, 3849, 3848, 3812, 3905, 3941, 3940, 3904
2890, 3854, 3805, 3806, 3842, 3946, 3897, 3898, 3934
2891, 3855, 3851, 3841, 3849, 3947, 3943, 3933, 3941
2892, 3828, 3800, 3799, 3853, 3920, 3892, 3891, 3945
2893, 3827, 3857, 3864, 3831, 3919, 3949, 3956, 3923
2894, 3801, 3781, 3818, 3863, 3893, 3873, 3910, 3955
2895, 3802, 3784, 3817, 3859, 3894, 3876, 3909, 3951
2896, 3774, 3861, 3822, 3773, 3866, 3953, 3914, 3865
2897, 3862, 3820, 3829, 3821, 3954, 3912, 3921, 3913
2898, 3818, 3823, 3817, 3863, 3910, 3915, 3909, 3955
2899, 3913, 3868, 3869, 3954, 4005, 3960, 3961, 4046
2900, 3866, 3867, 3952, 3953, 3958, 3959, 4044, 4045
2901, 3867, 3868, 3913, 3952, 3959, 3960, 4005, 4044
2902, 3916, 3914, 3913, 3921, 4008, 4006, 4005, 4013
2903, 3870, 3916, 3922, 3879, 3962, 4008, 4014, 3971
2904, 3872, 3911, 3910, 3873, 3964, 4003, 4002, 3965
2905, 3950, 3875, 3874, 3918, 4042, 3967, 3966, 4010
2906, 3877, 3894, 3951, 3917, 3969, 3986, 4043, 4009
2907, 3879, 3922, 3925, 3880, 3971, 4014, 4017, 3972
2908, 3880, 3925, 3926, 3881, 3972, 4017, 4018, 3973
2909, 3881, 3926, 3927, 3882, 3973, 4018, 4019, 3974
2910, 3882, 3927, 3928, 3883, 3974, 4019, 4020, 3975
2911, 3883, 3928, 3929, 3884, 3975, 4020, 4021, 3976
2912, 3884, 3929, 3930, 3885, 3976, 4021, 4022, 3977
2913, 3885, 3930, 3931, 3886, 3977, 4022, 4023, 3978
2914, 3886, 3931, 3932, 3887, 3978, 4023, 4024, 3979
2915, 3887, 3932, 3933, 3888, 3979, 4024, 4025, 3980
2916, 3888, 3933, 3943, 3889, 3980, 4025, 4035, 3981
2917, 3889, 3943, 3944, 3890, 3981, 4035, 4036, 3982
2918, 3890, 3944, 3945, 3891, 3982, 4036, 4037, 3983
2919, 3910, 3911, 3949, 3915, 4002, 4003, 4041, 4007
2920, 3909, 3876, 3875, 3950, 4001, 3968, 3967, 4042
2921, 3919, 3878, 3877, 3917, 4011, 3970, 3969, 4009
2922, 3921, 3912, 3924, 3942, 4013, 4004, 4016, 4034
2923, 3922, 3942, 3946, 3925, 4014, 4034, 4038, 4017
2924, 3925, 3946, 3934, 3926, 4017, 4038, 4026, 4018
2925, 3926, 3934, 3935, 3927, 4018, 4026, 4027, 4019
2926, 3927, 3935, 3936, 3928, 4019, 4027, 4028, 4020
2927, 3928, 3936, 3937, 3929, 4020, 4028, 4029, 4021
2928, 3929, 3937, 3938, 3930, 4021, 4029, 4030, 4022
2929, 3930, 3938, 3939, 3931, 4022, 4030, 4031, 4023
2930, 3931, 3939, 3940, 3932, 4023, 4031, 4032, 4024
2931, 3932, 3940, 3941, 3933, 4024, 4032, 4033, 4025
2932, 3906, 3947, 3941, 3905, 3998, 4039, 4033, 3997
2933, 3943, 3947, 3948, 3944, 4035, 4039, 4040, 4036
2934, 3920, 3945, 3923, 3956, 4012, 4037, 4015, 4048
2935, 3874, 3893, 3955, 3918, 3966, 3985, 4047, 4010
2936, 3892, 3920, 3911, 3872, 3984, 4012, 4003, 3964
2937, 3914, 3953, 3952, 3913, 4006, 4045, 4044, 4005
2938, 3954, 3869, 3871, 3912, 4046, 3961, 3963, 4004
2939, 3916, 3870, 3865, 3914, 4008, 3962, 3957, 4006
2940, 3951, 3909, 3915, 3917, 4043, 4001, 4007, 4009
2941, 3915, 3949, 3919, 3917, 4007, 4041, 4011, 4009
2942, 3942, 3922, 3916, 3921, 4034, 4014, 4008, 4013
2943, 3923, 3908, 3878, 3919, 4015, 4000, 3970, 4011
2944, 3950, 3918, 3955, 3909, 4042, 4010, 4047, 4001
2945, 3948, 3907, 3908, 3923, 4040, 3999, 4000, 4015
2946, 3920, 3956, 3949, 3911, 4012, 4048, 4041, 4003
2947, 3895, 3896, 3942, 3924, 3987, 3988, 4034, 4016
2948, 3907, 3948, 3947, 3906, 3999, 4040, 4039, 3998
2949, 3944, 3948, 3923, 3945, 4036, 4040, 4015, 4037
2950, 3924, 3912, 3871, 3895, 4016, 4004, 3963, 3987
2951, 3897, 3946, 3942, 3896, 3989, 4038, 4034, 3988
2952, 3899, 3935, 3934, 3898, 3991, 4027, 4026, 3990
2953, 3900, 3936, 3935, 3899, 3992, 4028, 4027, 3991
2954, 3901, 3937, 3936, 3900, 3993, 4029, 4028, 3992
2955, 3902, 3938, 3937, 3901, 3994, 4030, 4029, 3993
2956, 3903, 3939, 3938, 3902, 3995, 4031, 4030, 3994
2957, 3904, 3940, 3939, 3903, 3996, 4032, 4031, 3995
2958, 3905, 3941, 3940, 3904, 3997, 4033, 4032, 3996
2959, 3946, 3897, 3898, 3934, 4038, 3989, 3990, 4026
2960, 3947, 3943, 3933, 3941, 4039, 4035, 4025, 4033
2961, 3920, 3892, 3891, 3945, 4012, 3984, 3983, 4037
2962, 3919, 3949, 3956, 3923, 4011, 4041, 4048, 4015
2963, 3893, 3873, 3910, 3955, 3985, 3965, 4002, 4047
2964, 3894, 3876, 3909, 3951, 3986, 3968, 4001, 4043
2965, 3866, 3953, 3914, 3865, 3958, 4045, 4006, 3957
2966, 3954, 3912, 3921, 3913, 4046, 4004, 4013, 4005
2967, 3910, 3915, 3909, 3955, 4002, 4007, 4001, 4047
2968, 4005, 3960, 3961, 4046, 4097, 4052, 4053, 4138
2969, 3958, 3959, 4044, 4045, 4050, 4051, 4136, 4137
2970, 3959, 3960, 4005, 4044, 4051, 4052, 4097, 4136
2971, 4008, 4006, 4005, 4013, 4100, 4098, 4097, 4105
2972, 3962, 4008, 4014, 3971, 4054, 4100, 4106, 4063
2973, 3964, 4003, 4002, 3965, 4056, 4095, 4094, 4057
2974, 4042, 3967, 3966, 4010, 4134, 4059, 4058, 4102
2975, 3969, 3986, 4043, 4009, 4061, 4078, 4135, 4101
2976, 3971, 4014, 4017, 3972, 4063, 4106, 4109, 4064
2977, 3972, 4017, 4018, 3973, 4064, 4109, 4110, 4065
2978, 3973, 4018, 4019, 3974, 4065, 4110, 4111, 4066
2979, 3974, 4019, 4020, 3975, 4066, 4111, 4112, 4067
2980, 3975, 4020, 4021, 3976, 4067, 4112, 4113, 4068
2981, 3976, 4021, 4022, 3977, 4068, 4113, 4114, 4069
2982, 3977, 4022, 4023, 3978, 4069, 4114, 4115, 4070
2983, 3978, 4023, 4024, 3979, 4070, 4115, 4116, 4071
2984, 3979, 4024, 4025, 3980, 4071, 4116, 4117, 4072
2985, 3980, 4025, 4035, 3981, 4072, 4117, 4127, 4073
2986, 3981, 4035, 4036, 3982, 4073, 4127, 4128, 4074
2987, 3982, 4036, 4037, 3983, 4074, 4128, 4129, 4075
2988, 4002, 4003, 4041, 4007, 4094, 4095, 4133, 4099
2989, 4001, 3968, 3967, 4042, 4093, 4060, 4059, 4134
2990, 4011, 3970, 3969, 4009, 4103, 4062, 4061, 4101
2991, 4013, 4004, 4016, 4034, 4105, 4096, 4108, 4126
2992, 4014, 4034, 4038, 4017, 4106, 4126, 4130, 4109
2993, 4017, 4038, 4026, 4018, 4109, 4130, 4118, 4110
2994, 4018, 4026, 4027, 4019, 4110, 4118, 4119, 4111
2995, 4019, 4027, 4028, 4020, 4111, 4119, 4120, 4112
2996, 4020, 4028, 4029, 4021, 4112, 4120, 4121, 4113
2997, 4021, 4029, 4030, 4022, 4113, 4121, 4122, 4114
2998, 4022, 4030, 4031, 4023, 4114, 4122, 4123, 4115
2999, 4023, 4031, 4032, 4024, 4115, 4123, 4124, 4116
3000, 4024, 4032, 4033, 4025, 4116, 4124, 4125, 4117
3001, 3998, 4039, 4033, 3997, 4090, 4131, 4125, 4089
3002, 4035, 4039, 4040, 4036, 4127, 4131, 4132, 4128
3003, 4012, 4037, 4015, 4048, 4104, 4129, 4107, 4140
3004, 3966, 3985, 4047, 4010, 4058, 4077, 4139, 4102
3005, 3984, 4012, 4003, 3964, 4076, 4104, 4095, 4056
3006, 4006, 4045, 4044, 4005, 4098, 4137, 4136, 4097
3007, 4046, 3961, 3963, 4004, 4138, 4053, 4055, 4096
3008, 4008, 3962, 3957, 4006, 4100, 4054, 4049, 4098
3009, 4043, 4001, 4007, 4009, 4135, 4093, 4099, 4101
3010, 4007, 4041, 4011, 4009, 4099, 4133, 4103, 4101
3011, 4034, 4014, 4008, 4013, 4126, 4106, 4100, 4105
3012, 4015, 4000, 3970, 4011, 4107, 4092, 4062, 4103
3013, 4042, 4010, 4047, 4001, 4134, 4102, 4139, 4093
3014, 4040, 3999, 4000, 4015, 4132, 4091, 4092, 4107
3015, 4012, 4048, 4041, 4003, 4104, 4140, 4133, 4095
3016, 3987, 3988, 4034, 4016, 4079, 4080, 4126, 4108
3017, 3999, 4040, 4039, 3998, 4091, 4132, 4131, 4090
3018, 4036, 4040, 4015, 4037, 4128, 4132, 4107, 4129
3019, 4016, 4004, 3963, 3987, 4108, 4096, 4055, 4079
3020, 3989, 4038, 4034, 3988, 4081, 4130, 4126, 4080
3021, 3991, 4027, 4026, 3990, 4083, 4119, 4118, 4082
3022, 3992, 4028, 4027, 3991, 4084, 4120, 4119, 4083
3023, 3993, 4029, 4028, 3992, 4085, 4121, 4120, 4084
3024, 3994, 4030, 4029, 3993, 4086, 4122, 4121, 4085
3025, 3995, 4031, 4030, 3994, 4087, 4123, 4122, 4086
3026, 3996, 4032, 4031, 3995, 4088, 4124, 4123, 4087
3027, 3997, 4033, 4032, 3996, 4089, 4125, 4124, 4088
3028, 4038, 3989, 3990, 4026, 4130, 4081, 4082, 4118
3029, 4039, 4035, 4025, 4033, 4131, 4127, 4117, 4125
3030, 4012, 3984, 3983, 4037, 4104, 4076, 4075, 4129
3031, 4011, 4041, 4048, 4015, 4103, 4133, 4140, 4107
3032, 3985, 3965, 4002, 4047, 4077, 4057, 4094, 4139
3033, 3986, 3968, 4001, 4043, 4078, 4060, 4093, 4135
3034, 3958, 4045, 4006, 3957, 4050, 4137, 4098, 4049
3035, 4046, 4004, 4013, 4005, 4138, 4096, 4105, 4097
3036, 4002, 4007, 4001, 4047, 4094, 4099, 4093, 4139
3037, 4097, 4052, 4053, 4138, 4189, 4144, 4145, 4230
3038, 4050, 4051, 4136, 4137, 4142, 4143, 4228, 4229
3039, 4051, 4052, 4097, 4136, 4143, 4144, 4189, 4228
3040, 4100, 4098, 4097, 4105, 4192, 4190, 4189, 4197
3041, 4054, 4100, 4106, 4063, 4146, 4192, 4198, 4155
3042, 4056, 4095, 4094, 4057, 4148, 4187, 4186, 4149
3043, 4134, 4059, 4058, 4102, 4226, 4151, 4150, 4194
3044, 4061, 4078, 4135, 4101, 4153, 4170, 4227, 4193
3045, 4063, 4106, 4109, 4064, 4155, 4198, 4201, 4156
3046, 4064, 4109, 4110, 4065, 4156, 4201, 4202, 4157
3047, 4065, 4110, 4111, 4066, 4157, 4202, 4203, 4158
3048, 4066, 4111, 4112, 4067, 4158, 4203, 4204, 4159
3049, 4067, 4112, 4113, 4068, 4159, 4204, 4205, 4160
3050, 4068, 4113, 4114, 4069, 4160, 4205, 4206, 4161
3051, 4069, 4114, 4115, 4070, 4161, 4206, 4207, 4162
3052, 4070, 4115, 4116, 4071, 4162, 4207, 4208, 4163
3053, 4071, 4116, 4117, 4072, 4163, 4208, 4209, 4164
3054, 4072, 4117, 4127, 4073, 4164, 4209, 4219, 4165
3055, 4073, 4127, 4128, 4074, 4165, 4219, 4220, 4166
3056, 4074, 4128, 4129, 4075, 4166, 4220, 4221, 4167
3057, 4094, 4095, 4133, 4099, 4186, 4187, 4225, 4191
3058, 4093, 4060, 4059, 4134, 4185, 4152, 4151, 4226
3059, 4103, 4062, 4061, 4101, 4195, 4154, 4153, 4193
3060, 4105, 4096, 4108, 4126, 4197, 4188, 4200, 4218
3061, 4106, 4126, 4130, 4109, 4198, 4218, 4222, 4201
3062, 4109, 4130, 4118, 4110, 4201, 4222, 4210, 4202
3063, 4110, 4118, 4119, 4111, 4202, 4210, 4211, 4203
3064, 4111, 4119, 4120, 4112, 4203, 4211, 4212, 4204
3065, 4112, 4120, 4121, 4113, 4204, 4212, 4213, 4205
3066, 4113, 4121, 4122, 4114, 4205, 4213, 4214, 4206
3067, 4114, 4122, 4123, 4115, 4206, 4214, 4215, 4207
3068, 4115, 4123, 4124, 4116, 4207, 4215, 4216, 4208
3069, 4116, 4124, 4125, 4117, 4208, 4216, 4217, 4209
3070, 4090, 4131, 4125, 4089, 4182, 4223, 4217, 4181
3071, 4127, 4131, 4132, 4128, 4219, 4223, 4224, 4220
3072, 4104, 4129, 4107, 4140, 4196, 4221, 4199, 4232
3073, 4058, 4077, 4139, 4102, 4150, 4169, 4231, 4194
3074, 4076, 4104, 4095, 4056, 4168, 4196, 4187, 4148
3075, 4098, 4137, 4136, 4097, 4190, 4229, 4228, 4189
3076, 4138, 4053, 4055, 4096, 4230, 4145, 4147, 4188
3077, 4100, 4054, 4049, 4098, 4192, 4146, 4141, 4190
3078, 4135, 4093, 4099, 4101, 4227, 4185, 4191, 4193
3079, 4099, 4133, 4103, 4101, 4191, 4225, 4195, 4193
3080, 4126, 4106, 4100, 4105, 4218, 4198, 4192, 4197
3081, 4107, 4092, 4062, 4103, 4199, 4184, 4154, 4195
3082, 4134, 4102, 4139, 4093, 4226, 4194, 4231, 4185
3083, 4132, 4091, 4092, 4107, 4224, 4183, 4184, 4199
3084, 4104, 4140, 4133, 4095, 4196, 4232, 4225, 4187
3085, 4079, 4080, 4126, 4108, 4171, 4172, 4218, 4200
3086, 4091, 4132, 4131, 4090, 4183, 4224, 4223, 4182
3087, 4128, 4132, 4107, 4129, 4220, 4224, 4199, 4221
3088, 4108, 4096, 4055, 4079, 4200, 4188, 4147, 4171
3089, 4081, 4130, 4126, 4080, 4173, 4222, 4218, 4172
3090, 4083, 4119, 4118, 4082, 4175, 4211, 4210, 4174
3091, 4084, 4120, 4119, 4083, 4176, 4212, 4211, 4175
3092, 4085, 4121, 4120, 4084, 4177, 4213, 4212, 4176
3093, 4086, 4122, 4121, 4085, 4178, 4214, 4213, 4177
3094, 4087, 4123, 4122, 4086, 4179, 4215, 4214, 4178
3095, 4088, 4124, 4123, 4087, 4180, 4216, 4215, 4179
3096, 4089, 4125, 4124, 4088, 4181, 4217, 4216, 4180
3097, 4130, 4081, 4082, 4118, 4222, 4173, 4174, 4210
3098, 4131, 4127, 4117, 4125, 4223, 4219, 4209, 4217
3099, 4104, 4076, 4075, 4129, 4196, 4168, 4167, 4221
3100, 4103, 4133, 4140, 4107, 4195, 4225, 4232, 4199
3101, 4077, 4057, 4094, 4139, 4169, 4149, 4186, 4231
3102, 4078, 4060, 4093, 4135, 4170, 4152, 4185, 4227
3103, 4050, 4137, 4098, 4049, 4142, 4229, 4190, 4141
3104, 4138, 4096, 4105, 4097, 4230, 4188, 4197, 4189
3105, 4094, 4099, 4093, 4139, 4186, 4191, 4185, 4231
3106, 4189, 4144, 4145, 4230, 4281, 4236, 4237, 4322
3107, 4142, 4143, 4228, 4229, 4234, 4235, 4320, 4321
3108, 4143, 4144, 4189, 4228, 4235, 4236, 4281, 4320
3109, 4192, 4190, 4189, 4197, 4284, 4282, 4281, 4289
3110, 4146, 4192, 4198, 4155, 4238, 4284, 4290, 4247
3111, 4148, 4187, 4186, 4149, 4240, 4279, 4278, 4241
3112, 4226, 4151, 4150, 4194, 4318, 4243, 4242, 4286
3113, 4153, 4170, 4227, 4193, 4245, 4262, 4319, 4285
3114, 4155, 4198, 4201, 4156, 4247, 4290, 4293, 4248
3115, 4156, 4201, 4202, 4157, 4248, 4293, 4294, 4249
3116, 4157, 4202, 4203, 4158, 4249, 4294, 4295, 4250
3117, 4158, 4203, 4204, 4159, 4250, 4295, 4296, 4251
3118, 4159, 4204, 4205, 4160, 4251, 4296, 4297, 4252
3119, 4160, 4205, 4206, 4161, 4252, 4297, 4298, 4253
3120, 4161, 4206, 4207, 4162, 4253, 4298, 4299, 4254
3121, 4162, 4207, 4208, 4163, 4254, 4299, 4300, 4255
3122, 4163, 4208, 4209, 4164, 4255, 4300, 4301, 4256
3123, 4164, 4209, 4219, 4165, 4256, 4301, 4311, 4257
3124, 4165, 4219, 4220, 4166, 4257, 4311, 4312, 4258
3125, 4166, 4220, 4221, 4167, 4258, 4312, 4313, 4259
3126, 4186, 4187, 4225, 4191, 4278, 4279, 4317, 4283
3127, 4185, 4152, 4151, 4226, 4277, 4244, 4243, 4318
3128, 4195, 4154, 4153, 4193, 4287, 4246, 4245, 4285
3129, 4197, 4188, 4200, 4218, 4289, 4280, 4292, 4310
3130, 4198, 4218, 4222, 4201, 4290, 4310, 4314, 4293
3131, 4201, 4222, 4210, 4202, 4293, 4314, 4302, 4294
3132, 4202, 4210, 4211, 4203, 4294, 4302, 4303, 4295
3133, 4203, 4211, 4212, 4204, 4295, 4303, 4304, 4296
3134, 4204, 4212, 4213, 4205, 4296, 4304, 4305, 4297
3135, 4205, 4213, 4214, 4206, 4297, 4305, 4306, 4298
3136, 4206, 4214, 4215, 4207, 4298, 4306, 4307, 4299
3137, 4207, 4215, 4216, 4208, 4299, 4307, 4308, 4300
3138, 4208, 4216, 4217, 4209, 4300, 4308, 4309, 4301
3139, 4182, 4223, 4217, 4181, 4274, 4315, 4309, 4273
3140, 4219, 4223, 4224, 4220, 4311, 4315, 4316, 4312
3141, 4196, 4221, 4199, 4232, 4288, 4313, 4291, 4324
3142, 4150, 4169, 4231, 4194, 4242, 4261, 4323, 4286
3143, 4168, 4196, 4187, 4148, 4260, 4288, 4279, 4240
3144, 4190, 4229, 4228, 4189, 4282, 4321, 4320, 4281
3145, 4230, 4145, 4147, 4188, 4322, 4237, 4239, 4280
3146, 4192, 4146, 4141, 4190, 4284, 4238, 4233, 4282
3147, 4227, 4185, 4191, 4193, 4319, 4277, 4283, 4285
3148, 4191, 4225, 4195, 4193, 4283, 4317, 4287, 4285
3149, 4218, 4198, 4192, 4197, 4310, 4290, 4284, 4289
3150, 4199, 4184, 4154, 4195, 4291, 4276, 4246, 4287
3151, 4226, 4194, 4231, 4185, 4318, 4286, 4323, 4277
3152, 4224, 4183, 4184, 4199, 4316, 4275, 4276, 4291
3153, 4196, 4232, 4225, 4187, 4288, 4324, 4317, 4279
3154, 4171, 4172, 4218, 4200, 4263, 4264, 4310, 4292
3155, 4183, 4224, 4223, 4182, 4275, 4316, 4315, 4274
3156, 4220, 4224, 4199, 4221, 4312, 4316, 4291, 4313
3157, 4200, 4188, 4147, 4171, 4292, 4280, 4239, 4263
3158, 4173, 4222, 4218, 4172, 4265, 4314, 4310, 4264
3159, 4175, 4211, 4210, 4174, 4267, 4303, 4302, 4266
3160, 4176, 4212, 4211, 4175, 4268, 4304, 4303, 4267
3161, 4177, 4213, 4212, 4176, 4269, 4305, 4304, 4268
3162, 4178, 4214, 4213, 4177, 4270, 4306, 4305, 4269
3163, 4179, 4215, 4214, 4178, 4271, 4307, 4306, 4270
3164, 4180, 4216, 4215, 4179, 4272, 4308, 4307, 4271
3165, 4181, 4217, 4216, 4180, 4273, 4309, 4308, 4272
3166, 4222, 4173, 4174, 4210, 4314, 4265, 4266, 4302
3167, 4223, 4219, 4209, 4217, 4315, 4311, 4301, 4309
3168, 4196, 4168, 4167, 4221, 4288, 4260, 4259, 4313
3169, 4195, 4225, 4232, 4199, 4287, 4317, 4324, 4291
3170, 4169, 4149, 4186, 4231, 4261, 4241, 4278, 4323
3171, 4170, 4152, 4185, 4227, 4262, 4244, 4277, 4319
3172, 4142, 4229, 4190, 4141, 4234, 4321, 4282, 4233
3173, 4230, 4188, 4197, 4189, 4322, 4280, 4289, 4281
3174, 4186, 4191, 4185, 4231, 4278, 4283, 4277, 4323
3175, 4281, 4236, 4237, 4322, 4373, 4328, 4329, 4414
3176, 4234, 4235, 4320, 4321, 4326, 4327, 4412, 4413
3177, 4235, 4236, 4281, 4320, 4327, 4328, 4373, 4412
3178, 4284, 4282, 4281, 4289, 4376, 4374, 4373, 4381
3179, 4238, 4284, 4290, 4247, 4330, 4376, 4382, 4339
3180, 4240, 4279, 4278, 4241, 4332, 4371, 4370, 4333
3181, 4318, 4243, 4242, 4286, 4410, 4335, 4334, 4378
3182, 4245, 4262, 4319, 4285, 4337, 4354, 4411, 4377
3183, 4247, 4290, 4293, 4248, 4339, 4382, 4385, 4340
3184, 4248, 4293, 4294, 4249, 4340, 4385, 4386, 4341
3185, 4249, 4294, 4295, 4250, 4341, 4386, 4387, 4342
3186, 4250, 4295, 4296, 4251, 4342, 4387, 4388, 4343
3187, 4251, 4296, 4297, 4252, 4343, 4388, 4389, 4344
3188, 4252, 4297, 4298, 4253, 4344, 4389, 4390, 4345
3189, 4253, 4298, 4299, 4254, 4345, 4390, 4391, 4346
3190, 4254, 4299, 4300, 4255, 4346, 4391, 4392, 4347
3191, 4255, 4300, 4301, 4256, 4347, 4392, 4393, 4348
3192, 4256, 4301, 4311, 4257, 4348, 4393, 4403, 4349
3193, 4257, 4311, 4312, 4258, 4349, 4403, 4404, 4350
3194, 4258, 4312, 4313, 4259, 4350, 4404, 4405, 4351
3195, 4278, 4279, 4317, 4283, 4370, 4371, 4409, 4375
3196, 4277, 4244, 4243, 4318, 4369, 4336, 4335, 4410
3197, 4287, 4246, 4245, 4285, 4379, 4338, 4337, 4377
3198, 4289, 4280, 4292, 4310, 4381, 4372, 4384, 4402
3199, 4290, 4310, 4314, 4293, 4382, 4402, 4406, 4385
3200, 4293, 4314, 4302, 4294, 4385, 4406, 4394, 4386
3201, 4294, 4302, 4303, 4295, 4386, 4394, 4395, 4387
3202, 4295, 4303, 4304, 4296, 4387, 4395, 4396, 4388
3203, 4296, 4304, 4305, 4297, 4388, 4396, 4397, 4389
3204, 4297, 4305, 4306, 4298, 4389, 4397, 4398, 4390
3205, 4298, 4306, 4307, 4299, 4390, 4398, 4399, 4391
3206, 4299, 4307, 4308, 4300, 4391, 4399, 4400, 4392
3207, 4300, 4308, 4309, 4301, 4392, 4400, 4401, 4393
3208, 4274, 4315, 4309, 4273, 4366, 4407, 4401, 4365
3209, 4311, 4315, 4316, 4312, 4403, 4407, 4408, 4404
3210, 4288, 4313, 4291, 4324, 4380, 4405, 4383, 4416
3211, 4242, 4261, 4323, 4286, 4334, 4353, 4415, 4378
3212, 4260, 4288, 4279, 4240, 4352, 4380, 4371, 4332
3213, 4282, 4321, 4320, 4281, 4374, 4413, 4412, 4373
3214, 4322, 4237, 4239, 4280, 4414, 4329, 4331, 4372
3215, 4284, 4238, 4233, 4282, 4376, 4330, 4325, 4374
3216, 4319, 4277, 4283, 4285, 4411, 4369, 4375, 4377
3217, 4283, 4317, 4287, 4285, 4375, 4409, 4379, 4377
3218, 4310, 4290, 4284, 4289, 4402, 4382, 4376, 4381
3219, 4291, 4276, 4246, 4287, 4383, 4368, 4338, 4379
3220, 4318, 4286, 4323, 4277, 4410, 4378, 4415, 4369
3221, 4316, 4275, 4276, 4291, 4408, 4367, 4368, 4383
3222, 4288, 4324, 4317, 4279, 4380, 4416, 4409, 4371
3223, 4263, 4264, 4310, 4292, 4355, 4356, 4402, 4384
3224, 4275, 4316, 4315, 4274, 4367, 4408, 4407, 4366
3225, 4312, 4316, 4291, 4313, 4404, 4408, 4383, 4405
3226, 4292, 4280, 4239, 4263, 4384, 4372, 4331, 4355
3227, 4265, 4314, 4310, 4264, 4357, 4406, 4402, 4356
3228, 4267, 4303, 4302, 4266, 4359, 4395, 4394, 4358
3229, 4268, 4304, 4303, 4267, 4360, 4396, 4395, 4359
3230, 4269, 4305, 4304, 4268, 4361, 4397, 4396, 4360
3231, 4270, 4306, 4305, 4269, 4362, 4398, 4397, 4361
3232, 4271, 4307, 4306, 4270, 4363, 4399, 4398, 4362
3233, 4272, 4308, 4307, 4271, 4364, 4400, 4399, 4363
3234, 4273, 4309, 4308, 4272, 4365, 4401, 4400, 4364
3235, 4314, 4265, 4266, 4302, 4406, 4357, 4358, 4394
3236, 4315, 4311, 4301, 4309, 4407, 4403, 4393, 4401
3237, 4288, 4260, 4259, 4313, 4380, 4352, 4351, 4405
3238, 4287, 4317, 4324, 4291, 4379, 4409, 4416, 4383
3239, 4261, 4241, 4278, 4323, 4353, 4333, 4370, 4415
3240, 4262, 4244, 4277, 4319, 4354, 4336, 4369, 4411
3241, 4234, 4321, 4282, 4233, 4326, 4413, 4374, 4325
3242, 4322, 4280, 4289, 4281, 4414, 4372, 4381, 4373
3243, 4278, 4283, 4277, 4323, 4370, 4375, 4369, 4415
3244, 4373, 4328, 4329, 4414, 4465, 4420, 4421, 4506
3245, 4326, 4327, 4412, 4413, 4418, 4419, 4504, 4505
3246, 4327, 4328, 4373, 4412, 4419, 4420, 4465, 4504
3247, 4376, 4374, 4373, 4381, 4468, 4466, 4465, 4473
3248, 4330, 4376, 4382, 4339, 4422, 4468, 4474, 4431
3249, 4332, 4371, 4370, 4333, 4424, 4463, 4462, 4425
3250, 4410, 4335, 4334, 4378, 4502, 4427, 4426, 4470
3251, 4337, 4354, 4411, 4377, 4429, 4446, 4503, 4469
3252, 4339, 4382, 4385, 4340, 4431, 4474, 4477, 4432
3253, 4340, 4385, 4386, 4341, 4432, 4477, 4478, 4433
3254, 4341, 4386, 4387, 4342, 4433, 4478, 4479, 4434
3255, 4342, 4387, 4388, 4343, 4434, 4479, 4480, 4435
3256, 4343, 4388, 4389, 4344, 4435, 4480, 4481, 4436
3257, 4344, 4389, 4390, 4345, 4436, 4481, 4482, 4437
3258, 4345, 4390, 4391, 4346, 4437, 4482, 4483, 4438
3259, 4346, 4391, 4392, 4347, 4438, 4483, 4484, 4439
3260, 4347, 4392, 4393, 4348, 4439, 4484, 4485, 4440
3261, 4348, 4393, 4403, 4349, 4440, 4485, 4495, 4441
3262, 4349, 4403, 4404, 4350, 4441, 4495, 4496, 4442
3263, 4350, 4404, 4405, 4351, 4442, 4496, 4497, 4443
3264, 4370, 4371, 4409, 4375, 4462, 4463, 4501, 4467
3265, 4369, 4336, 4335, 4410, 4461, 4428, 4427, 4502
3266, 4379, 4338, 4337, 4377, 4471, 4430, 4429, 4469
3267, 4381, 4372, 4384, 4402, 4473, 4464, 4476, 4494
3268, 4382, 4402, 4406, 4385, 4474, 4494, 4498, 4477
3269, 4385, 4406, 4394, 4386, 4477, 4498, 4486, 4478
3270, 4386, 4394, 4395, 4387, 4478, 4486, 4487, 4479
3271, 4387, 4395, 4396, 4388, 4479, 4487, 4488, 4480
3272, 4388, 4396, 4397, 4389, 4480, 4488, 4489, 4481
3273, 4389, 4397, 4398, 4390, 4481, 4489, 4490, 4482
3274, 4390, 4398, 4399, 4391, 4482, 4490, 4491, 4483
3275, 4391, 4399, 4400, 4392, 4483, 4491, 4492, 4484
3276, 4392, 4400, 4401, 4393, 4484, 4492, 4493, 4485
3277, 4366, 4407, 4401, 4365, 4458, 4499, 4493, 4457
3278, 4403, 4407, 4408, 4404, 4495, 4499, 4500, 4496
3279, 4380, 4405, 4383, 4416, 4472, 4497, 4475, 4508
3280, 4334, 4353, 4415, 4378, 4426, 4445, 4507, 4470
3281, 4352, 4380, 4371, 4332, 4444, 4472, 4463, 4424
3282, 4374, 4413, 4412, 4373, 4466, 4505, 4504, 4465
3283, 4414, 4329, 4331, 4372, 4506, 4421, 4423, 4464
3284, 4376, 4330, 4325, 4374, 4468, 4422, 4417, 4466
3285, 4411, 4369, 4375, 4377, 4503, 4461, 4467, 4469
3286, 4375, 4409, 4379, 4377, 4467, 4501, 4471, 4469
3287, 4402, 4382, 4376, 4381, 4494, 4474, 4468, 4473
3288, 4383, 4368, 4338, 4379, 4475, 4460, 4430, 4471
3289, 4410, 4378, 4415, 4369, 4502, 4470, 4507, 4461
3290, 4408, 4367, 4368, 4383, 4500, 4459, 4460, 4475
3291, 4380, 4416, 4409, 4371, 4472, 4508, 4501, 4463
3292, 4355, 4356, 4402, 4384, 4447, 4448, 4494, 4476
3293, 4367, 4408, 4407, 4366, 4459, 4500, 4499, 4458
3294, 4404, 4408, 4383, 4405, 4496, 4500, 4475, 4497
3295, 4384, 4372, 4331, 4355, 4476, 4464, 4423, 4447
3296, 4357, 4406, 4402, 4356, 4449, 4498, 4494, 4448
3297, 4359, 4395, 4394, 4358, 4451, 4487, 4486, 4450
3298, 4360, 4396, 4395, 4359, 4452, 4488, 4487, 4451
3299, 4361, 4397, 4396, 4360, 4453, 4489, 4488, 4452
3300, 4362, 4398, 4397, 4361, 4454, 4490, 4489, 4453
3301, 4363, 4399, 4398, 4362, 4455, 4491, 4490, 4454
3302, 4364, 4400, 4399, 4363, 4456, 4492, 4491, 4455
3303, 4365, 4401, 4400, 4364, 4457, 4493, 4492, 4456
3304, 4406, 4357, 4358, 4394, 4498, 4449, 4450, 4486
3305, 4407, 4403, 4393, 4401, 4499, 4495, 4485, 4493
3306, 4380, 4352, 4351, 4405, 4472, 4444, 4443, 4497
3307, 4379, 4409, 4416, 4383, 4471, 4501, 4508, 4475
3308, 4353, 4333, 4370, 4415, 4445, 4425, 4462, 4507
3309, 4354, 4336, 4369, 4411, 4446, 4428, 4461, 4503
3310, 4326, 4413, 4374, 4325, 4418, 4505, 4466, 4417
3311, 4414, 4372, 4381, 4373, 4506, 4464, 4473, 4465
3312, 4370, 4375, 4369, 4415, 4462, 4467, 4461, 4507
3313, 4465, 4420, 4421, 4506, 4557, 4512, 4513, 4598
3314, 4418, 4419, 4504, 4505, 4510, 4511, 4596, 4597
3315, 4419, 4420, 4465, 4504, 4511, 4512, 4557, 4596
3316, 4468, 4466, 4465, 4473, 4560, 4558, 4557, 4565
3317, 4422, 4468, 4474, 4431, 4514, 4560, 4566, 4523
3318, 4424, 4463, 4462, 4425, 4516, 4555, 4554, 4517
3319, 4502, 4427, 4426, 4470, 4594, 4519, 4518, 4562
3320, 4429, 4446, 4503, 4469, 4521, 4538, 4595, 4561
3321, 4431, 4474, 4477, 4432, 4523, 4566, 4569, 4524
3322, 4432, 4477, 4478, 4433, 4524, 4569, 4570, 4525
3323, 4433, 4478, 4479, 4434, 4525, 4570, 4571, 4526
3324, 4434, 4479, 4480, 4435, 4526, 4571, 4572, 4527
3325, 4435, 4480, 4481, 4436, 4527, 4572, 4573, 4528
3326, 4436, 4481, 4482, 4437, 4528, 4573, 4574, 4529
3327, 4437, 4482, 4483, 4438, 4529, 4574, 4575, 4530
3328, 4438, 4483, 4484, 4439, 4530, 4575, 4576, 4531
3329, 4439, 4484, 4485, 4440, 4531, 4576, 4577, 4532
3330, 4440, 4485, 4495, 4441, 4532, 4577, 4587, 4533
3331, 4441, 4495, 4496, 4442, 4533, 4587, 4588, 4534
3332, 4442, 4496, 4497, 4443, 4534, 4588, 4589, 4535
3333, 4462, 4463, 4501, 4467, 4554, 4555, 4593, 4559
3334, 4461, 4428, 4427, 4502, 4553, 4520, 4519, 4594
3335, 4471, 4430, 4429, 4469, 4563, 4522, 4521, 4561
3336, 4473, 4464, 4476, 4494, 4565, 4556, 4568, 4586
3337, 4474, 4494, 4498, 4477, 4566, 4586, 4590, 4569
3338, 4477, 4498, 4486, 4478, 4569, 4590, 4578, 4570
3339, 4478, 4486, 4487, 4479, 4570, 4578, 4579, 4571
3340, 4479, 4487, 4488, 4480, 4571, 4579, 4580, 4572
3341, 4480, 4488, 4489, 4481, 4572, 4580, 4581, 4573
3342, 4481, 4489, 4490, 4482, 4573, 4581, 4582, 4574
3343, 4482, 4490, 4491, 4483, 4574, 4582, 4583, 4575
3344, 4483, 4491, 4492, 4484, 4575, 4583, 4584, 4576
3345, 4484, 4492, 4493, 4485, 4576, 4584, 4585, 4577
3346, 4458, 4499, 4493, 4457, 4550, 4591, 4585, 4549
3347, 4495, 4499, 4500, 4496, 4587, 4591, 4592, 4588
3348, 4472, 4497, 4475, 4508, 4564, 4589, 4567, 4600
3349, 4426, 4445, 4507, 4470, 4518, 4537, 4599, 4562
3350, 4444, 4472, 4463, 4424, 4536, 4564, 4555, 4516
3351, 4466, 4505, 4504, 4465, 4558, 4597, 4596, 4557
3352, 4506, 4421, 4423, 4464, 4598, 4513, 4515, 4556
3353, 4468, 4422, 4417, 4466, 4560, 4514, 4509, 4558
3354, 4503, 4461, 4467, 4469, 4595, 4553, 4559, 4561
3355, 4467, 4501, 4471, 4469, 4559, 4593, 4563, 4561
3356, 4494, 4474, 4468, 4473, 4586, 4566, 4560, 4565
3357, 4475, 4460, 4430, 4471, 4567, 4552, 4522, 4563
3358, 4502, 4470, 4507, 4461, 4594, 4562, 4599, 4553
3359, 4500, 4459, 4460, 4475, 4592, 4551, 4552, 4567
3360, 4472, 4508, 4501, 4463, 4564, 4600, 4593, 4555
3361, 4447, 4448, 4494, 4476, 4539, 4540, 4586, 4568
3362, 4459, 4500, 4499, 4458, 4551, 4592, 4591, 4550
3363, 4496, 4500, 4475, 4497, 4588, 4592, 4567, 4589
3364, 4476, 4464, 4423, 4447, 4568, 4556, 4515, 4539
3365, 4449, 4498, 4494, 4448, 4541, 4590, 4586, 4540
3366, 4451, 4487, 4486, 4450, 4543, 4579, 4578, 4542
3367, 4452, 4488, 4487, 4451, 4544, 4580, 4579, 4543
3368, 4453, 4489, 4488, 4452, 4545, 4581, 4580, 4544
3369, 4454, 4490, 4489, 4453, 4546, 4582, 4581, 4545
3370, 4455, 4491, 4490, 4454, 4547, 4583, 4582, 4546
3371, 4456, 4492, 4491, 4455, 4548, 4584, 4583, 4547
3372, 4457, 4493, 4492, 4456, 4549, 4585, 4584, 4548
3373, 4498, 4449, 4450, 4486, 4590, 4541, 4542, 4578
3374, 4499, 4495, 4485, 4493, 4591, 4587, 4577, 4585
3375, 4472, 4444, 4443, 4497, 4564, 4536, 4535, 4589
3376, 4471, 4501, 4508, 4475, 4563, 4593, 4600, 4567
3377, 4445, 4425, 4462, 4507, 4537, 4517, 4554, 4599
3378, 4446, 4428, 4461, 4503, 4538, 4520, 4553, 4595
3379, 4418, 4505, 4466, 4417, 4510, 4597, 4558, 4509
3380, 4506, 4464, 4473, 4465, 4598, 4556, 4565, 4557
3381, 4462, 4467, 4461, 4507, 4554, 4559, 4553, 4599
3382, 4557, 4512, 4513, 4598, 4649, 4604, 4605, 4690
3383, 4510, 4511, 4596, 4597, 4602, 4603, 4688, 4689
3384, 4511, 4512, 4557, 4596, 4603, 4604, 4649, 4688
3385, 4560, 4558, 4557, 4565, 4652, 4650, 4649, 4657
3386, 4514, 4560, 4566, 4523, 4606, 4652, 4658, 4615
3387, 4516, 4555, 4554, 4517, 4608, 4647, 4646, 4609
3388, 4594, 4519, 4518, 4562, 4686, 4611, 4610, 4654
3389, 4521, 4538, 4595, 4561, 4613, 4630, 4687, 4653
3390, 4523, 4566, 4569, 4524, 4615, 4658, 4661, 4616
3391, 4524, 4569, 4570, 4525, 4616, 4661, 4662, 4617
3392, 4525, 4570, 4571, 4526, 4617, 4662, 4663, 4618
3393, 4526, 4571, 4572, 4527, 4618, 4663, 4664, 4619
3394, 4527, 4572, 4573, 4528, 4619, 4664, 4665, 4620
3395, 4528, 4573, 4574, 4529, 4620, 4665, 4666, 4621
3396, 4529, 4574, 4575, 4530, 4621, 4666, 4667, 4622
3397, 4530, 4575, 4576, 4531, 4622, 4667, 4668, 4623
3398, 4531, 4576, 4577, 4532, 4623, 4668, 4669, 4624
3399, 4532, 4577, 4587, 4533, 4624, 4669, 4679, 4625
3400, 4533, 4587, 4588, 4534, 4625, 4679, 4680, 4626
3401, 4534, 4588, 4589, 4535, 4626, 4680, 4681, 4627
3402, 4554, 4555, 4593, 4559, 4646, 4647, 4685, 4651
3403, 4553, 4520, 4519, 4594, 4645, 4612, 4611, 4686
3404, 4563, 4522, 4521, 4561, 4655, 4614, 4613, 4653
3405, 4565, 4556, 4568, 4586, 4657, 4648, 4660, 4678
3406, 4566, 4586, 4590, 4569, 4658, 4678, 4682, 4661
3407, 4569, 4590, 4578, 4570, 4661, 4682, 4670, 4662
3408, 4570, 4578, 4579, 4571, 4662, 4670, 4671, 4663
3409, 4571, 4579, 4580, 4572, 4663, 4671, 4672, 4664
3410, 4572, 4580, 4581, 4573, 4664, 4672, 4673, 4665
3411, 4573, 4581, 4582, 4574, 4665, 4673, 4674, 4666
3412, 4574, 4582, 4583, 4575, 4666, 4674, 4675, 4667
3413, 4575, 4583, 4584, 4576, 4667, 4675, 4676, 4668
3414, 4576, 4584, 4585, 4577, 4668, 4676, 4677, 4669
3415, 4550, 4591, 4585, 4549, 4642, 4683, 4677, 4641
3416, 4587, 4591, 4592, 4588, 4679, 4683, 4684, 4680
3417, 4564, 4589, 4567, 4600, 4656, 4681, 4659, 4692
3418, 4518, 4537, 4599, 4562, 4610, 4629, 4691, 4654
3419, 4536, 4564, 4555, 4516, 4628, 4656, 4647, 4608
3420, 4558, 4597, 4596, 4557, 4650, 4689, 4688, 4649
3421, 4598, 4513, 4515, 4556, 4690, 4605, 4607, 4648
3422, 4560, 4514, 4509, 4558, 4652, 4606, 4601, 4650
3423, 4595, 4553, 4559, 4561, 4687, 4645, 4651, 4653
3424, 4559, 4593, 4563, 4561, 4651, 4685, 4655, 4653
3425, 4586, 4566, 4560, 4565, 4678, 4658, 4652, 4657
3426, 4567, 4552, 4522, 4563, 4659, 4644, 4614, 4655
3427, 4594, 4562, 4599, 4553, 4686, 4654, 4691, 4645
3428, 4592, 4551, 4552, 4567, 4684, 4643, 4644, 4659
3429, 4564, 4600, 4593, 4555, 4656, 4692, 4685, 4647
3430, 4539, 4540, 4586, 4568, 4631, 4632, 4678, 4660
3431, 4551, 4592, 4591, 4550, 4643, 4684, 4683, 4642
3432, 4588, 4592, 4567, 4589, 4680, 4684, 4659, 4681
3433, 4568, 4556, 4515, 4539, 4660, 4648, 4607, 4631
3434, 4541, 4590, 4586, 4540, 4633, 4682, 4678, 4632
3435, 4543, 4579, 4578, 4542, 4635, 4671, 4670, 4634
3436, 4544, 4580, 4579, 4543, 4636, 4672, 4671, 4635
3437, 4545, 4581, 4580, 4544, 4637, 4673, 4672, 4636
3438, 4546, 4582, 4581, 4545, 4638, 4674, 4673, 4637
3439, 4547, 4583, 4582, 4546, 4639, 4675, 4674, 4638
3440, 4548, 4584, 4583, 4547, 4640, 4676, 4675, 4639
3441, 4549, 4585, 4584, 4548, 4641, 4677, 4676, 4640
3442, 4590, 4541, 4542, 4578, 4682, 4633, 4634, 4670
3443, 4591, 4587, 4577, 4585, 4683, 4679, 4669, 4677
3444, 4564, 4536, 4535, 4589, 4656, 4628, 4627, 4681
3445, 4563, 4593, 4600, 4567, 4655, 4685, 4692, 4659
3446, 4537, 4517, 4554, 4599, 4629, 4609, 4646, 4691
3447, 4538, 4520, 4553, 4595, 4630, 4612, 4645, 4687
3448, 4510, 4597, 4558, 4509, 4602, 4689, 4650, 4601
3449, 4598, 4556, 4565, 4557, 4690, 4648, 4657, 4649
3450, 4554, 4559, 4553, 4599, 4646, 4651, 4645, 4691
*Nset, nset=Set-All, generate
    1,  4692,     1
*Elset, elset=Set-All, generate
    1,  3450,     1
*Nset, nset=Set-length1
 350,
*Nset, nset=Set-length2
 1178,
*Nset, nset=Set-length3
 2374,
*Nset, nset=Set-width4
 2351,
*Nset, nset=Set-width5
 2383,
*Nset, nset=Set-width6
 2362,
*Nset, nset=Set-width7
 2349,
*Nset, nset=Set-height8
 2321,
*Nset, nset=Set-height9
 2366,
** Section: Section-1
*Solid Section, elset=Set-All, material=Material-1
1.,
*End Part
**  
**
** ASSEMBLY
**
*Assembly, name=Assembly
**  
*Instance, name=Part-1, part=Part-1
*End Instance
**  
*Nset, nset=Set-1, instance=Part-1
    6,    8,   15,   16,   17,   18,   19,   20,   21,   22,   23,   24,   25,   26,   27,   28
   98,  100,  107,  108,  109,  110,  111,  112,  113,  114,  115,  116,  117,  118,  119,  120
  190,  192,  199,  200,  201,  202,  203,  204,  205,  206,  207,  208,  209,  210,  211,  212
  282,  284,  291,  292,  293,  294,  295,  296,  297,  298,  299,  300,  301,  302,  303,  304
  374,  376,  383,  384,  385,  386,  387,  388,  389,  390,  391,  392,  393,  394,  395,  396
  466,  468,  475,  476,  477,  478,  479,  480,  481,  482,  483,  484,  485,  486,  487,  488
  558,  560,  567,  568,  569,  570,  571,  572,  573,  574,  575,  576,  577,  578,  579,  580
  650,  652,  659,  660,  661,  662,  663,  664,  665,  666,  667,  668,  669,  670,  671,  672
  742,  744,  751,  752,  753,  754,  755,  756,  757,  758,  759,  760,  761,  762,  763,  764
  834,  836,  843,  844,  845,  846,  847,  848,  849,  850,  851,  852,  853,  854,  855,  856
  926,  928,  935,  936,  937,  938,  939,  940,  941,  942,  943,  944,  945,  946,  947,  948
 1018, 1020, 1027, 1028, 1029, 1030, 1031, 1032, 1033, 1034, 1035, 1036, 1037, 1038, 1039, 1040
 1110, 1112, 1119, 1120, 1121, 1122, 1123, 1124, 1125, 1126, 1127, 1128, 1129, 1130, 1131, 1132
 1202, 1204, 1211, 1212, 1213, 1214, 1215, 1216, 1217, 1218, 1219, 1220, 1221, 1222, 1223, 1224
 1294, 1296, 1303, 1304, 1305, 1306, 1307, 1308, 1309, 1310, 1311, 1312, 1313, 1314, 1315, 1316
 1386, 1388, 1395, 1396, 1397, 1398, 1399, 1400, 1401, 1402, 1403, 1404, 1405, 1406, 1407, 1408
 1478, 1480, 1487, 1488, 1489, 1490, 1491, 1492, 1493, 1494, 1495, 1496, 1497, 1498, 1499, 1500
 1570, 1572, 1579, 1580, 1581, 1582, 1583, 1584, 1585, 1586, 1587, 1588, 1589, 1590, 1591, 1592
 1662, 1664, 1671, 1672, 1673, 1674, 1675, 1676, 1677, 1678, 1679, 1680, 1681, 1682, 1683, 1684
 1754, 1756, 1763, 1764, 1765, 1766, 1767, 1768, 1769, 1770, 1771, 1772, 1773, 1774, 1775, 1776
 1846, 1848, 1855, 1856, 1857, 1858, 1859, 1860, 1861, 1862, 1863, 1864, 1865, 1866, 1867, 1868
 1938, 1940, 1947, 1948, 1949, 1950, 1951, 1952, 1953, 1954, 1955, 1956, 1957, 1958, 1959, 1960
 2030, 2032, 2039, 2040, 2041, 2042, 2043, 2044, 2045, 2046, 2047, 2048, 2049, 2050, 2051, 2052
 2122, 2124, 2131, 2132, 2133, 2134, 2135, 2136, 2137, 2138, 2139, 2140, 2141, 2142, 2143, 2144
 2214, 2216, 2223, 2224, 2225, 2226, 2227, 2228, 2229, 2230, 2231, 2232, 2233, 2234, 2235, 2236
 2306, 2308, 2315, 2316, 2317, 2318, 2319, 2320, 2321, 2322, 2323, 2324, 2325, 2326, 2327, 2328
 2398, 2400, 2407, 2408, 2409, 2410, 2411, 2412, 2413, 2414, 2415, 2416, 2417, 2418, 2419, 2420
 2490, 2492, 2499, 2500, 2501, 2502, 2503, 2504, 2505, 2506, 2507, 2508, 2509, 2510, 2511, 2512
 2582, 2584, 2591, 2592, 2593, 2594, 2595, 2596, 2597, 2598, 2599, 2600, 2601, 2602, 2603, 2604
 2674, 2676, 2683, 2684, 2685, 2686, 2687, 2688, 2689, 2690, 2691, 2692, 2693, 2694, 2695, 2696
 2766, 2768, 2775, 2776, 2777, 2778, 2779, 2780, 2781, 2782, 2783, 2784, 2785, 2786, 2787, 2788
 2858, 2860, 2867, 2868, 2869, 2870, 2871, 2872, 2873, 2874, 2875, 2876, 2877, 2878, 2879, 2880
 2950, 2952, 2959, 2960, 2961, 2962, 2963, 2964, 2965, 2966, 2967, 2968, 2969, 2970, 2971, 2972
 3042, 3044, 3051, 3052, 3053, 3054, 3055, 3056, 3057, 3058, 3059, 3060, 3061, 3062, 3063, 3064
 3134, 3136, 3143, 3144, 3145, 3146, 3147, 3148, 3149, 3150, 3151, 3152, 3153, 3154, 3155, 3156
 3226, 3228, 3235, 3236, 3237, 3238, 3239, 3240, 3241, 3242, 3243, 3244, 3245, 3246, 3247, 3248
 3318, 3320, 3327, 3328, 3329, 3330, 3331, 3332, 3333, 3334, 3335, 3336, 3337, 3338, 3339, 3340
 3410, 3412, 3419, 3420, 3421, 3422, 3423, 3424, 3425, 3426, 3427, 3428, 3429, 3430, 3431, 3432
 3502, 3504, 3511, 3512, 3513, 3514, 3515, 3516, 3517, 3518, 3519, 3520, 3521, 3522, 3523, 3524
 3594, 3596, 3603, 3604, 3605, 3606, 3607, 3608, 3609, 3610, 3611, 3612, 3613, 3614, 3615, 3616
 3686, 3688, 3695, 3696, 3697, 3698, 3699, 3700, 3701, 3702, 3703, 3704, 3705, 3706, 3707, 3708
 3778, 3780, 3787, 3788, 3789, 3790, 3791, 3792, 3793, 3794, 3795, 3796, 3797, 3798, 3799, 3800
 3870, 3872, 3879, 3880, 3881, 3882, 3883, 3884, 3885, 3886, 3887, 3888, 3889, 3890, 3891, 3892
 3962, 3964, 3971, 3972, 3973, 3974, 3975, 3976, 3977, 3978, 3979, 3980, 3981, 3982, 3983, 3984
 4054, 4056, 4063, 4064, 4065, 4066, 4067, 4068, 4069, 4070, 4071, 4072, 4073, 4074, 4075, 4076
 4146, 4148, 4155, 4156, 4157, 4158, 4159, 4160, 4161, 4162, 4163, 4164, 4165, 4166, 4167, 4168
 4238, 4240, 4247, 4248, 4249, 4250, 4251, 4252, 4253, 4254, 4255, 4256, 4257, 4258, 4259, 4260
 4330, 4332, 4339, 4340, 4341, 4342, 4343, 4344, 4345, 4346, 4347, 4348, 4349, 4350, 4351, 4352
 4422, 4424, 4431, 4432, 4433, 4434, 4435, 4436, 4437, 4438, 4439, 4440, 4441, 4442, 4443, 4444
 4514, 4516, 4523, 4524, 4525, 4526, 4527, 4528, 4529, 4530, 4531, 4532, 4533, 4534, 4535, 4536
 4606, 4608, 4615, 4616, 4617, 4618, 4619, 4620, 4621, 4622, 4623, 4624, 4625, 4626, 4627, 4628
*Elset, elset=Set-1, instance=Part-1
    5,    9,   10,   11,   12,   13,   14,   15,   16,   17,   18,   19,   20,   38,   63,   74
   78,   79,   80,   81,   82,   83,   84,   85,   86,   87,   88,   89,  107,  132,  143,  147
  148,  149,  150,  151,  152,  153,  154,  155,  156,  157,  158,  176,  201,  212,  216,  217
  218,  219,  220,  221,  222,  223,  224,  225,  226,  227,  245,  270,  281,  285,  286,  287
  288,  289,  290,  291,  292,  293,  294,  295,  296,  314,  339,  350,  354,  355,  356,  357
  358,  359,  360,  361,  362,  363,  364,  365,  383,  408,  419,  423,  424,  425,  426,  427
  428,  429,  430,  431,  432,  433,  434,  452,  477,  488,  492,  493,  494,  495,  496,  497
  498,  499,  500,  501,  502,  503,  521,  546,  557,  561,  562,  563,  564,  565,  566,  567
  568,  569,  570,  571,  572,  590,  615,  626,  630,  631,  632,  633,  634,  635,  636,  637
  638,  639,  640,  641,  659,  684,  695,  699,  700,  701,  702,  703,  704,  705,  706,  707
  708,  709,  710,  728,  753,  764,  768,  769,  770,  771,  772,  773,  774,  775,  776,  777
  778,  779,  797,  822,  833,  837,  838,  839,  840,  841,  842,  843,  844,  845,  846,  847
  848,  866,  891,  902,  906,  907,  908,  909,  910,  911,  912,  913,  914,  915,  916,  917
  935,  960,  971,  975,  976,  977,  978,  979,  980,  981,  982,  983,  984,  985,  986, 1004
 1029, 1040, 1044, 1045, 1046, 1047, 1048, 1049, 1050, 1051, 1052, 1053, 1054, 1055, 1073, 1098
 1109, 1113, 1114, 1115, 1116, 1117, 1118, 1119, 1120, 1121, 1122, 1123, 1124, 1142, 1167, 1178
 1182, 1183, 1184, 1185, 1186, 1187, 1188, 1189, 1190, 1191, 1192, 1193, 1211, 1236, 1247, 1251
 1252, 1253, 1254, 1255, 1256, 1257, 1258, 1259, 1260, 1261, 1262, 1280, 1305, 1316, 1320, 1321
 1322, 1323, 1324, 1325, 1326, 1327, 1328, 1329, 1330, 1331, 1349, 1374, 1385, 1389, 1390, 1391
 1392, 1393, 1394, 1395, 1396, 1397, 1398, 1399, 1400, 1418, 1443, 1454, 1458, 1459, 1460, 1461
 1462, 1463, 1464, 1465, 1466, 1467, 1468, 1469, 1487, 1512, 1523, 1527, 1528, 1529, 1530, 1531
 1532, 1533, 1534, 1535, 1536, 1537, 1538, 1556, 1581, 1592, 1596, 1597, 1598, 1599, 1600, 1601
 1602, 1603, 1604, 1605, 1606, 1607, 1625, 1650, 1661, 1665, 1666, 1667, 1668, 1669, 1670, 1671
 1672, 1673, 1674, 1675, 1676, 1694, 1719, 1730, 1734, 1735, 1736, 1737, 1738, 1739, 1740, 1741
 1742, 1743, 1744, 1745, 1763, 1788, 1799, 1803, 1804, 1805, 1806, 1807, 1808, 1809, 1810, 1811
 1812, 1813, 1814, 1832, 1857, 1868, 1872, 1873, 1874, 1875, 1876, 1877, 1878, 1879, 1880, 1881
 1882, 1883, 1901, 1926, 1937, 1941, 1942, 1943, 1944, 1945, 1946, 1947, 1948, 1949, 1950, 1951
 1952, 1970, 1995, 2006, 2010, 2011, 2012, 2013, 2014, 2015, 2016, 2017, 2018, 2019, 2020, 2021
 2039, 2064, 2075, 2079, 2080, 2081, 2082, 2083, 2084, 2085, 2086, 2087, 2088, 2089, 2090, 2108
 2133, 2144, 2148, 2149, 2150, 2151, 2152, 2153, 2154, 2155, 2156, 2157, 2158, 2159, 2177, 2202
 2213, 2217, 2218, 2219, 2220, 2221, 2222, 2223, 2224, 2225, 2226, 2227, 2228, 2246, 2271, 2282
 2286, 2287, 2288, 2289, 2290, 2291, 2292, 2293, 2294, 2295, 2296, 2297, 2315, 2340, 2351, 2355
 2356, 2357, 2358, 2359, 2360, 2361, 2362, 2363, 2364, 2365, 2366, 2384, 2409, 2420, 2424, 2425
 2426, 2427, 2428, 2429, 2430, 2431, 2432, 2433, 2434, 2435, 2453, 2478, 2489, 2493, 2494, 2495
 2496, 2497, 2498, 2499, 2500, 2501, 2502, 2503, 2504, 2522, 2547, 2558, 2562, 2563, 2564, 2565
 2566, 2567, 2568, 2569, 2570, 2571, 2572, 2573, 2591, 2616, 2627, 2631, 2632, 2633, 2634, 2635
 2636, 2637, 2638, 2639, 2640, 2641, 2642, 2660, 2685, 2696, 2700, 2701, 2702, 2703, 2704, 2705
 2706, 2707, 2708, 2709, 2710, 2711, 2729, 2754, 2765, 2769, 2770, 2771, 2772, 2773, 2774, 2775
 2776, 2777, 2778, 2779, 2780, 2798, 2823, 2834, 2838, 2839, 2840, 2841, 2842, 2843, 2844, 2845
 2846, 2847, 2848, 2849, 2867, 2892, 2903, 2907, 2908, 2909, 2910, 2911, 2912, 2913, 2914, 2915
 2916, 2917, 2918, 2936, 2961, 2972, 2976, 2977, 2978, 2979, 2980, 2981, 2982, 2983, 2984, 2985
 2986, 2987, 3005, 3030, 3041, 3045, 3046, 3047, 3048, 3049, 3050, 3051, 3052, 3053, 3054, 3055
 3056, 3074, 3099, 3110, 3114, 3115, 3116, 3117, 3118, 3119, 3120, 3121, 3122, 3123, 3124, 3125
 3143, 3168, 3179, 3183, 3184, 3185, 3186, 3187, 3188, 3189, 3190, 3191, 3192, 3193, 3194, 3212
 3237, 3248, 3252, 3253, 3254, 3255, 3256, 3257, 3258, 3259, 3260, 3261, 3262, 3263, 3281, 3306
 3317, 3321, 3322, 3323, 3324, 3325, 3326, 3327, 3328, 3329, 3330, 3331, 3332, 3350, 3375, 3386
 3390, 3391, 3392, 3393, 3394, 3395, 3396, 3397, 3398, 3399, 3400, 3401, 3419, 3444
*Nset, nset=Set-2, instance=Part-1
    7,   14,   31,   32,   33,   34,   35,   36,   37,   38,   39,   40,   41,   42,   43,   44
   99,  106,  123,  124,  125,  126,  127,  128,  129,  130,  131,  132,  133,  134,  135,  136
  191,  198,  215,  216,  217,  218,  219,  220,  221,  222,  223,  224,  225,  226,  227,  228
  283,  290,  307,  308,  309,  310,  311,  312,  313,  314,  315,  316,  317,  318,  319,  320
  375,  382,  399,  400,  401,  402,  403,  404,  405,  406,  407,  408,  409,  410,  411,  412
  467,  474,  491,  492,  493,  494,  495,  496,  497,  498,  499,  500,  501,  502,  503,  504
  559,  566,  583,  584,  585,  586,  587,  588,  589,  590,  591,  592,  593,  594,  595,  596
  651,  658,  675,  676,  677,  678,  679,  680,  681,  682,  683,  684,  685,  686,  687,  688
  743,  750,  767,  768,  769,  770,  771,  772,  773,  774,  775,  776,  777,  778,  779,  780
  835,  842,  859,  860,  861,  862,  863,  864,  865,  866,  867,  868,  869,  870,  871,  872
  927,  934,  951,  952,  953,  954,  955,  956,  957,  958,  959,  960,  961,  962,  963,  964
 1019, 1026, 1043, 1044, 1045, 1046, 1047, 1048, 1049, 1050, 1051, 1052, 1053, 1054, 1055, 1056
 1111, 1118, 1135, 1136, 1137, 1138, 1139, 1140, 1141, 1142, 1143, 1144, 1145, 1146, 1147, 1148
 1203, 1210, 1227, 1228, 1229, 1230, 1231, 1232, 1233, 1234, 1235, 1236, 1237, 1238, 1239, 1240
 1295, 1302, 1319, 1320, 1321, 1322, 1323, 1324, 1325, 1326, 1327, 1328, 1329, 1330, 1331, 1332
 1387, 1394, 1411, 1412, 1413, 1414, 1415, 1416, 1417, 1418, 1419, 1420, 1421, 1422, 1423, 1424
 1479, 1486, 1503, 1504, 1505, 1506, 1507, 1508, 1509, 1510, 1511, 1512, 1513, 1514, 1515, 1516
 1571, 1578, 1595, 1596, 1597, 1598, 1599, 1600, 1601, 1602, 1603, 1604, 1605, 1606, 1607, 1608
 1663, 1670, 1687, 1688, 1689, 1690, 1691, 1692, 1693, 1694, 1695, 1696, 1697, 1698, 1699, 1700
 1755, 1762, 1779, 1780, 1781, 1782, 1783, 1784, 1785, 1786, 1787, 1788, 1789, 1790, 1791, 1792
 1847, 1854, 1871, 1872, 1873, 1874, 1875, 1876, 1877, 1878, 1879, 1880, 1881, 1882, 1883, 1884
 1939, 1946, 1963, 1964, 1965, 1966, 1967, 1968, 1969, 1970, 1971, 1972, 1973, 1974, 1975, 1976
 2031, 2038, 2055, 2056, 2057, 2058, 2059, 2060, 2061, 2062, 2063, 2064, 2065, 2066, 2067, 2068
 2123, 2130, 2147, 2148, 2149, 2150, 2151, 2152, 2153, 2154, 2155, 2156, 2157, 2158, 2159, 2160
 2215, 2222, 2239, 2240, 2241, 2242, 2243, 2244, 2245, 2246, 2247, 2248, 2249, 2250, 2251, 2252
 2307, 2314, 2331, 2332, 2333, 2334, 2335, 2336, 2337, 2338, 2339, 2340, 2341, 2342, 2343, 2344
 2399, 2406, 2423, 2424, 2425, 2426, 2427, 2428, 2429, 2430, 2431, 2432, 2433, 2434, 2435, 2436
 2491, 2498, 2515, 2516, 2517, 2518, 2519, 2520, 2521, 2522, 2523, 2524, 2525, 2526, 2527, 2528
 2583, 2590, 2607, 2608, 2609, 2610, 2611, 2612, 2613, 2614, 2615, 2616, 2617, 2618, 2619, 2620
 2675, 2682, 2699, 2700, 2701, 2702, 2703, 2704, 2705, 2706, 2707, 2708, 2709, 2710, 2711, 2712
 2767, 2774, 2791, 2792, 2793, 2794, 2795, 2796, 2797, 2798, 2799, 2800, 2801, 2802, 2803, 2804
 2859, 2866, 2883, 2884, 2885, 2886, 2887, 2888, 2889, 2890, 2891, 2892, 2893, 2894, 2895, 2896
 2951, 2958, 2975, 2976, 2977, 2978, 2979, 2980, 2981, 2982, 2983, 2984, 2985, 2986, 2987, 2988
 3043, 3050, 3067, 3068, 3069, 3070, 3071, 3072, 3073, 3074, 3075, 3076, 3077, 3078, 3079, 3080
 3135, 3142, 3159, 3160, 3161, 3162, 3163, 3164, 3165, 3166, 3167, 3168, 3169, 3170, 3171, 3172
 3227, 3234, 3251, 3252, 3253, 3254, 3255, 3256, 3257, 3258, 3259, 3260, 3261, 3262, 3263, 3264
 3319, 3326, 3343, 3344, 3345, 3346, 3347, 3348, 3349, 3350, 3351, 3352, 3353, 3354, 3355, 3356
 3411, 3418, 3435, 3436, 3437, 3438, 3439, 3440, 3441, 3442, 3443, 3444, 3445, 3446, 3447, 3448
 3503, 3510, 3527, 3528, 3529, 3530, 3531, 3532, 3533, 3534, 3535, 3536, 3537, 3538, 3539, 3540
 3595, 3602, 3619, 3620, 3621, 3622, 3623, 3624, 3625, 3626, 3627, 3628, 3629, 3630, 3631, 3632
 3687, 3694, 3711, 3712, 3713, 3714, 3715, 3716, 3717, 3718, 3719, 3720, 3721, 3722, 3723, 3724
 3779, 3786, 3803, 3804, 3805, 3806, 3807, 3808, 3809, 3810, 3811, 3812, 3813, 3814, 3815, 3816
 3871, 3878, 3895, 3896, 3897, 3898, 3899, 3900, 3901, 3902, 3903, 3904, 3905, 3906, 3907, 3908
 3963, 3970, 3987, 3988, 3989, 3990, 3991, 3992, 3993, 3994, 3995, 3996, 3997, 3998, 3999, 4000
 4055, 4062, 4079, 4080, 4081, 4082, 4083, 4084, 4085, 4086, 4087, 4088, 4089, 4090, 4091, 4092
 4147, 4154, 4171, 4172, 4173, 4174, 4175, 4176, 4177, 4178, 4179, 4180, 4181, 4182, 4183, 4184
 4239, 4246, 4263, 4264, 4265, 4266, 4267, 4268, 4269, 4270, 4271, 4272, 4273, 4274, 4275, 4276
 4331, 4338, 4355, 4356, 4357, 4358, 4359, 4360, 4361, 4362, 4363, 4364, 4365, 4366, 4367, 4368
 4423, 4430, 4447, 4448, 4449, 4450, 4451, 4452, 4453, 4454, 4455, 4456, 4457, 4458, 4459, 4460
 4515, 4522, 4539, 4540, 4541, 4542, 4543, 4544, 4545, 4546, 4547, 4548, 4549, 4550, 4551, 4552
 4607, 4614, 4631, 4632, 4633, 4634, 4635, 4636, 4637, 4638, 4639, 4640, 4641, 4642, 4643, 4644
*Elset, elset=Set-2, instance=Part-1
   34,   45,   47,   49,   50,   52,   53,   54,   55,   56,   57,   58,   59,   60,   61,  103
  114,  116,  118,  119,  121,  122,  123,  124,  125,  126,  127,  128,  129,  130,  172,  183
  185,  187,  188,  190,  191,  192,  193,  194,  195,  196,  197,  198,  199,  241,  252,  254
  256,  257,  259,  260,  261,  262,  263,  264,  265,  266,  267,  268,  310,  321,  323,  325
  326,  328,  329,  330,  331,  332,  333,  334,  335,  336,  337,  379,  390,  392,  394,  395
  397,  398,  399,  400,  401,  402,  403,  404,  405,  406,  448,  459,  461,  463,  464,  466
  467,  468,  469,  470,  471,  472,  473,  474,  475,  517,  528,  530,  532,  533,  535,  536
  537,  538,  539,  540,  541,  542,  543,  544,  586,  597,  599,  601,  602,  604,  605,  606
  607,  608,  609,  610,  611,  612,  613,  655,  666,  668,  670,  671,  673,  674,  675,  676
  677,  678,  679,  680,  681,  682,  724,  735,  737,  739,  740,  742,  743,  744,  745,  746
  747,  748,  749,  750,  751,  793,  804,  806,  808,  809,  811,  812,  813,  814,  815,  816
  817,  818,  819,  820,  862,  873,  875,  877,  878,  880,  881,  882,  883,  884,  885,  886
  887,  888,  889,  931,  942,  944,  946,  947,  949,  950,  951,  952,  953,  954,  955,  956
  957,  958, 1000, 1011, 1013, 1015, 1016, 1018, 1019, 1020, 1021, 1022, 1023, 1024, 1025, 1026
 1027, 1069, 1080, 1082, 1084, 1085, 1087, 1088, 1089, 1090, 1091, 1092, 1093, 1094, 1095, 1096
 1138, 1149, 1151, 1153, 1154, 1156, 1157, 1158, 1159, 1160, 1161, 1162, 1163, 1164, 1165, 1207
 1218, 1220, 1222, 1223, 1225, 1226, 1227, 1228, 1229, 1230, 1231, 1232, 1233, 1234, 1276, 1287
 1289, 1291, 1292, 1294, 1295, 1296, 1297, 1298, 1299, 1300, 1301, 1302, 1303, 1345, 1356, 1358
 1360, 1361, 1363, 1364, 1365, 1366, 1367, 1368, 1369, 1370, 1371, 1372, 1414, 1425, 1427, 1429
 1430, 1432, 1433, 1434, 1435, 1436, 1437, 1438, 1439, 1440, 1441, 1483, 1494, 1496, 1498, 1499
 1501, 1502, 1503, 1504, 1505, 1506, 1507, 1508, 1509, 1510, 1552, 1563, 1565, 1567, 1568, 1570
 1571, 1572, 1573, 1574, 1575, 1576, 1577, 1578, 1579, 1621, 1632, 1634, 1636, 1637, 1639, 1640
 1641, 1642, 1643, 1644, 1645, 1646, 1647, 1648, 1690, 1701, 1703, 1705, 1706, 1708, 1709, 1710
 1711, 1712, 1713, 1714, 1715, 1716, 1717, 1759, 1770, 1772, 1774, 1775, 1777, 1778, 1779, 1780
 1781, 1782, 1783, 1784, 1785, 1786, 1828, 1839, 1841, 1843, 1844, 1846, 1847, 1848, 1849, 1850
 1851, 1852, 1853, 1854, 1855, 1897, 1908, 1910, 1912, 1913, 1915, 1916, 1917, 1918, 1919, 1920
 1921, 1922, 1923, 1924, 1966, 1977, 1979, 1981, 1982, 1984, 1985, 1986, 1987, 1988, 1989, 1990
 1991, 1992, 1993, 2035, 2046, 2048, 2050, 2051, 2053, 2054, 2055, 2056, 2057, 2058, 2059, 2060
 2061, 2062, 2104, 2115, 2117, 2119, 2120, 2122, 2123, 2124, 2125, 2126, 2127, 2128, 2129, 2130
 2131, 2173, 2184, 2186, 2188, 2189, 2191, 2192, 2193, 2194, 2195, 2196, 2197, 2198, 2199, 2200
 2242, 2253, 2255, 2257, 2258, 2260, 2261, 2262, 2263, 2264, 2265, 2266, 2267, 2268, 2269, 2311
 2322, 2324, 2326, 2327, 2329, 2330, 2331, 2332, 2333, 2334, 2335, 2336, 2337, 2338, 2380, 2391
 2393, 2395, 2396, 2398, 2399, 2400, 2401, 2402, 2403, 2404, 2405, 2406, 2407, 2449, 2460, 2462
 2464, 2465, 2467, 2468, 2469, 2470, 2471, 2472, 2473, 2474, 2475, 2476, 2518, 2529, 2531, 2533
 2534, 2536, 2537, 2538, 2539, 2540, 2541, 2542, 2543, 2544, 2545, 2587, 2598, 2600, 2602, 2603
 2605, 2606, 2607, 2608, 2609, 2610, 2611, 2612, 2613, 2614, 2656, 2667, 2669, 2671, 2672, 2674
 2675, 2676, 2677, 2678, 2679, 2680, 2681, 2682, 2683, 2725, 2736, 2738, 2740, 2741, 2743, 2744
 2745, 2746, 2747, 2748, 2749, 2750, 2751, 2752, 2794, 2805, 2807, 2809, 2810, 2812, 2813, 2814
 2815, 2816, 2817, 2818, 2819, 2820, 2821, 2863, 2874, 2876, 2878, 2879, 2881, 2882, 2883, 2884
 2885, 2886, 2887, 2888, 2889, 2890, 2932, 2943, 2945, 2947, 2948, 2950, 2951, 2952, 2953, 2954
 2955, 2956, 2957, 2958, 2959, 3001, 3012, 3014, 3016, 3017, 3019, 3020, 3021, 3022, 3023, 3024
 3025, 3026, 3027, 3028, 3070, 3081, 3083, 3085, 3086, 3088, 3089, 3090, 3091, 3092, 3093, 3094
 3095, 3096, 3097, 3139, 3150, 3152, 3154, 3155, 3157, 3158, 3159, 3160, 3161, 3162, 3163, 3164
 3165, 3166, 3208, 3219, 3221, 3223, 3224, 3226, 3227, 3228, 3229, 3230, 3231, 3232, 3233, 3234
 3235, 3277, 3288, 3290, 3292, 3293, 3295, 3296, 3297, 3298, 3299, 3300, 3301, 3302, 3303, 3304
 3346, 3357, 3359, 3361, 3362, 3364, 3365, 3366, 3367, 3368, 3369, 3370, 3371, 3372, 3373, 3415
 3426, 3428, 3430, 3431, 3433, 3434, 3435, 3436, 3437, 3438, 3439, 3440, 3441, 3442
*Nset, nset=Set-3, instance=Part-1
    8,    9,   10,   11,   12,   13,   14,   29,   30,  100,  101,  102,  103,  104,  105,  106
  121,  122,  192,  193,  194,  195,  196,  197,  198,  213,  214,  284,  285,  286,  287,  288
  289,  290,  305,  306,  376,  377,  378,  379,  380,  381,  382,  397,  398,  468,  469,  470
  471,  472,  473,  474,  489,  490,  560,  561,  562,  563,  564,  565,  566,  581,  582,  652
  653,  654,  655,  656,  657,  658,  673,  674,  744,  745,  746,  747,  748,  749,  750,  765
  766,  836,  837,  838,  839,  840,  841,  842,  857,  858,  928,  929,  930,  931,  932,  933
  934,  949,  950, 1020, 1021, 1022, 1023, 1024, 1025, 1026, 1041, 1042, 1112, 1113, 1114, 1115
 1116, 1117, 1118, 1133, 1134, 1204, 1205, 1206, 1207, 1208, 1209, 1210, 1225, 1226, 1296, 1297
 1298, 1299, 1300, 1301, 1302, 1317, 1318, 1388, 1389, 1390, 1391, 1392, 1393, 1394, 1409, 1410
 1480, 1481, 1482, 1483, 1484, 1485, 1486, 1501, 1502, 1572, 1573, 1574, 1575, 1576, 1577, 1578
 1593, 1594, 1664, 1665, 1666, 1667, 1668, 1669, 1670, 1685, 1686, 1756, 1757, 1758, 1759, 1760
 1761, 1762, 1777, 1778, 1848, 1849, 1850, 1851, 1852, 1853, 1854, 1869, 1870, 1940, 1941, 1942
 1943, 1944, 1945, 1946, 1961, 1962, 2032, 2033, 2034, 2035, 2036, 2037, 2038, 2053, 2054, 2124
 2125, 2126, 2127, 2128, 2129, 2130, 2145, 2146, 2216, 2217, 2218, 2219, 2220, 2221, 2222, 2237
 2238, 2308, 2309, 2310, 2311, 2312, 2313, 2314, 2329, 2330, 2400, 2401, 2402, 2403, 2404, 2405
 2406, 2421, 2422, 2492, 2493, 2494, 2495, 2496, 2497, 2498, 2513, 2514, 2584, 2585, 2586, 2587
 2588, 2589, 2590, 2605, 2606, 2676, 2677, 2678, 2679, 2680, 2681, 2682, 2697, 2698, 2768, 2769
 2770, 2771, 2772, 2773, 2774, 2789, 2790, 2860, 2861, 2862, 2863, 2864, 2865, 2866, 2881, 2882
 2952, 2953, 2954, 2955, 2956, 2957, 2958, 2973, 2974, 3044, 3045, 3046, 3047, 3048, 3049, 3050
 3065, 3066, 3136, 3137, 3138, 3139, 3140, 3141, 3142, 3157, 3158, 3228, 3229, 3230, 3231, 3232
 3233, 3234, 3249, 3250, 3320, 3321, 3322, 3323, 3324, 3325, 3326, 3341, 3342, 3412, 3413, 3414
 3415, 3416, 3417, 3418, 3433, 3434, 3504, 3505, 3506, 3507, 3508, 3509, 3510, 3525, 3526, 3596
 3597, 3598, 3599, 3600, 3601, 3602, 3617, 3618, 3688, 3689, 3690, 3691, 3692, 3693, 3694, 3709
 3710, 3780, 3781, 3782, 3783, 3784, 3785, 3786, 3801, 3802, 3872, 3873, 3874, 3875, 3876, 3877
 3878, 3893, 3894, 3964, 3965, 3966, 3967, 3968, 3969, 3970, 3985, 3986, 4056, 4057, 4058, 4059
 4060, 4061, 4062, 4077, 4078, 4148, 4149, 4150, 4151, 4152, 4153, 4154, 4169, 4170, 4240, 4241
 4242, 4243, 4244, 4245, 4246, 4261, 4262, 4332, 4333, 4334, 4335, 4336, 4337, 4338, 4353, 4354
 4424, 4425, 4426, 4427, 4428, 4429, 4430, 4445, 4446, 4516, 4517, 4518, 4519, 4520, 4521, 4522
 4537, 4538, 4608, 4609, 4610, 4611, 4612, 4613, 4614, 4629, 4630
*Elset, elset=Set-3, instance=Part-1
    6,    7,    8,   22,   23,   37,   65,   66,   75,   76,   77,   91,   92,  106,  134,  135
  144,  145,  146,  160,  161,  175,  203,  204,  213,  214,  215,  229,  230,  244,  272,  273
  282,  283,  284,  298,  299,  313,  341,  342,  351,  352,  353,  367,  368,  382,  410,  411
  420,  421,  422,  436,  437,  451,  479,  480,  489,  490,  491,  505,  506,  520,  548,  549
  558,  559,  560,  574,  575,  589,  617,  618,  627,  628,  629,  643,  644,  658,  686,  687
  696,  697,  698,  712,  713,  727,  755,  756,  765,  766,  767,  781,  782,  796,  824,  825
  834,  835,  836,  850,  851,  865,  893,  894,  903,  904,  905,  919,  920,  934,  962,  963
  972,  973,  974,  988,  989, 1003, 1031, 1032, 1041, 1042, 1043, 1057, 1058, 1072, 1100, 1101
 1110, 1111, 1112, 1126, 1127, 1141, 1169, 1170, 1179, 1180, 1181, 1195, 1196, 1210, 1238, 1239
 1248, 1249, 1250, 1264, 1265, 1279, 1307, 1308, 1317, 1318, 1319, 1333, 1334, 1348, 1376, 1377
 1386, 1387, 1388, 1402, 1403, 1417, 1445, 1446, 1455, 1456, 1457, 1471, 1472, 1486, 1514, 1515
 1524, 1525, 1526, 1540, 1541, 1555, 1583, 1584, 1593, 1594, 1595, 1609, 1610, 1624, 1652, 1653
 1662, 1663, 1664, 1678, 1679, 1693, 1721, 1722, 1731, 1732, 1733, 1747, 1748, 1762, 1790, 1791
 1800, 1801, 1802, 1816, 1817, 1831, 1859, 1860, 1869, 1870, 1871, 1885, 1886, 1900, 1928, 1929
 1938, 1939, 1940, 1954, 1955, 1969, 1997, 1998, 2007, 2008, 2009, 2023, 2024, 2038, 2066, 2067
 2076, 2077, 2078, 2092, 2093, 2107, 2135, 2136, 2145, 2146, 2147, 2161, 2162, 2176, 2204, 2205
 2214, 2215, 2216, 2230, 2231, 2245, 2273, 2274, 2283, 2284, 2285, 2299, 2300, 2314, 2342, 2343
 2352, 2353, 2354, 2368, 2369, 2383, 2411, 2412, 2421, 2422, 2423, 2437, 2438, 2452, 2480, 2481
 2490, 2491, 2492, 2506, 2507, 2521, 2549, 2550, 2559, 2560, 2561, 2575, 2576, 2590, 2618, 2619
 2628, 2629, 2630, 2644, 2645, 2659, 2687, 2688, 2697, 2698, 2699, 2713, 2714, 2728, 2756, 2757
 2766, 2767, 2768, 2782, 2783, 2797, 2825, 2826, 2835, 2836, 2837, 2851, 2852, 2866, 2894, 2895
 2904, 2905, 2906, 2920, 2921, 2935, 2963, 2964, 2973, 2974, 2975, 2989, 2990, 3004, 3032, 3033
 3042, 3043, 3044, 3058, 3059, 3073, 3101, 3102, 3111, 3112, 3113, 3127, 3128, 3142, 3170, 3171
 3180, 3181, 3182, 3196, 3197, 3211, 3239, 3240, 3249, 3250, 3251, 3265, 3266, 3280, 3308, 3309
 3318, 3319, 3320, 3334, 3335, 3349, 3377, 3378, 3387, 3388, 3389, 3403, 3404, 3418, 3446, 3447
*Nset, nset=Set-4, instance=Part-1
    1,    2,    3,    4,    5,    6,    7,   93,   94,   95,   96,   97,   98,   99,  185,  186
  187,  188,  189,  190,  191,  277,  278,  279,  280,  281,  282,  283,  369,  370,  371,  372
  373,  374,  375,  461,  462,  463,  464,  465,  466,  467,  553,  554,  555,  556,  557,  558
  559,  645,  646,  647,  648,  649,  650,  651,  737,  738,  739,  740,  741,  742,  743,  829
  830,  831,  832,  833,  834,  835,  921,  922,  923,  924,  925,  926,  927, 1013, 1014, 1015
 1016, 1017, 1018, 1019, 1105, 1106, 1107, 1108, 1109, 1110, 1111, 1197, 1198, 1199, 1200, 1201
 1202, 1203, 1289, 1290, 1291, 1292, 1293, 1294, 1295, 1381, 1382, 1383, 1384, 1385, 1386, 1387
 1473, 1474, 1475, 1476, 1477, 1478, 1479, 1565, 1566, 1567, 1568, 1569, 1570, 1571, 1657, 1658
 1659, 1660, 1661, 1662, 1663, 1749, 1750, 1751, 1752, 1753, 1754, 1755, 1841, 1842, 1843, 1844
 1845, 1846, 1847, 1933, 1934, 1935, 1936, 1937, 1938, 1939, 2025, 2026, 2027, 2028, 2029, 2030
 2031, 2117, 2118, 2119, 2120, 2121, 2122, 2123, 2209, 2210, 2211, 2212, 2213, 2214, 2215, 2301
 2302, 2303, 2304, 2305, 2306, 2307, 2393, 2394, 2395, 2396, 2397, 2398, 2399, 2485, 2486, 2487
 2488, 2489, 2490, 2491, 2577, 2578, 2579, 2580, 2581, 2582, 2583, 2669, 2670, 2671, 2672, 2673
 2674, 2675, 2761, 2762, 2763, 2764, 2765, 2766, 2767, 2853, 2854, 2855, 2856, 2857, 2858, 2859
 2945, 2946, 2947, 2948, 2949, 2950, 2951, 3037, 3038, 3039, 3040, 3041, 3042, 3043, 3129, 3130
 3131, 3132, 3133, 3134, 3135, 3221, 3222, 3223, 3224, 3225, 3226, 3227, 3313, 3314, 3315, 3316
 3317, 3318, 3319, 3405, 3406, 3407, 3408, 3409, 3410, 3411, 3497, 3498, 3499, 3500, 3501, 3502
 3503, 3589, 3590, 3591, 3592, 3593, 3594, 3595, 3681, 3682, 3683, 3684, 3685, 3686, 3687, 3773
 3774, 3775, 3776, 3777, 3778, 3779, 3865, 3866, 3867, 3868, 3869, 3870, 3871, 3957, 3958, 3959
 3960, 3961, 3962, 3963, 4049, 4050, 4051, 4052, 4053, 4054, 4055, 4141, 4142, 4143, 4144, 4145
 4146, 4147, 4233, 4234, 4235, 4236, 4237, 4238, 4239, 4325, 4326, 4327, 4328, 4329, 4330, 4331
 4417, 4418, 4419, 4420, 4421, 4422, 4423, 4509, 4510, 4511, 4512, 4513, 4514, 4515, 4601, 4602
 4603, 4604, 4605, 4606, 4607
*Elset, elset=Set-4, instance=Part-1
    1,    2,    3,   40,   41,   67,   70,   71,   72,  109,  110,  136,  139,  140,  141,  178
  179,  205,  208,  209,  210,  247,  248,  274,  277,  278,  279,  316,  317,  343,  346,  347
  348,  385,  386,  412,  415,  416,  417,  454,  455,  481,  484,  485,  486,  523,  524,  550
  553,  554,  555,  592,  593,  619,  622,  623,  624,  661,  662,  688,  691,  692,  693,  730
  731,  757,  760,  761,  762,  799,  800,  826,  829,  830,  831,  868,  869,  895,  898,  899
  900,  937,  938,  964,  967,  968,  969, 1006, 1007, 1033, 1036, 1037, 1038, 1075, 1076, 1102
 1105, 1106, 1107, 1144, 1145, 1171, 1174, 1175, 1176, 1213, 1214, 1240, 1243, 1244, 1245, 1282
 1283, 1309, 1312, 1313, 1314, 1351, 1352, 1378, 1381, 1382, 1383, 1420, 1421, 1447, 1450, 1451
 1452, 1489, 1490, 1516, 1519, 1520, 1521, 1558, 1559, 1585, 1588, 1589, 1590, 1627, 1628, 1654
 1657, 1658, 1659, 1696, 1697, 1723, 1726, 1727, 1728, 1765, 1766, 1792, 1795, 1796, 1797, 1834
 1835, 1861, 1864, 1865, 1866, 1903, 1904, 1930, 1933, 1934, 1935, 1972, 1973, 1999, 2002, 2003
 2004, 2041, 2042, 2068, 2071, 2072, 2073, 2110, 2111, 2137, 2140, 2141, 2142, 2179, 2180, 2206
 2209, 2210, 2211, 2248, 2249, 2275, 2278, 2279, 2280, 2317, 2318, 2344, 2347, 2348, 2349, 2386
 2387, 2413, 2416, 2417, 2418, 2455, 2456, 2482, 2485, 2486, 2487, 2524, 2525, 2551, 2554, 2555
 2556, 2593, 2594, 2620, 2623, 2624, 2625, 2662, 2663, 2689, 2692, 2693, 2694, 2731, 2732, 2758
 2761, 2762, 2763, 2800, 2801, 2827, 2830, 2831, 2832, 2869, 2870, 2896, 2899, 2900, 2901, 2938
 2939, 2965, 2968, 2969, 2970, 3007, 3008, 3034, 3037, 3038, 3039, 3076, 3077, 3103, 3106, 3107
 3108, 3145, 3146, 3172, 3175, 3176, 3177, 3214, 3215, 3241, 3244, 3245, 3246, 3283, 3284, 3310
 3313, 3314, 3315, 3352, 3353, 3379, 3382, 3383, 3384, 3421, 3422, 3448
*Nset, nset=Set-5, instance=Part-1, generate
 4601,  4692,     1
*Elset, elset=Set-5, instance=Part-1, generate
 3382,  3450,     1
*Nset, nset=Set-6, instance=Part-1, generate
  1,  92,   1
*Elset, elset=Set-6, instance=Part-1, generate
  1,  69,   1
*Elset, elset=_Surf-1_S6, internal, instance=Part-1
    5,    9,   10,   11,   12,   13,   14,   15,   16,   17,   18,   19,   20,   38,   74,   78
   79,   80,   81,   82,   83,   84,   85,   86,   87,   88,   89,  107,  143,  147,  148,  149
  150,  151,  152,  153,  154,  155,  156,  157,  158,  176,  212,  216,  217,  218,  219,  220
  221,  222,  223,  224,  225,  226,  227,  245,  281,  285,  286,  287,  288,  289,  290,  291
  292,  293,  294,  295,  296,  314,  350,  354,  355,  356,  357,  358,  359,  360,  361,  362
  363,  364,  365,  383,  419,  423,  424,  425,  426,  427,  428,  429,  430,  431,  432,  433
  434,  452,  488,  492,  493,  494,  495,  496,  497,  498,  499,  500,  501,  502,  503,  521
  557,  561,  562,  563,  564,  565,  566,  567,  568,  569,  570,  571,  572,  590,  626,  630
  631,  632,  633,  634,  635,  636,  637,  638,  639,  640,  641,  659,  695,  699,  700,  701
  702,  703,  704,  705,  706,  707,  708,  709,  710,  728,  764,  768,  769,  770,  771,  772
  773,  774,  775,  776,  777,  778,  779,  797,  833,  837,  838,  839,  840,  841,  842,  843
  844,  845,  846,  847,  848,  866,  902,  906,  907,  908,  909,  910,  911,  912,  913,  914
  915,  916,  917,  935,  971,  975,  976,  977,  978,  979,  980,  981,  982,  983,  984,  985
  986, 1004, 1040, 1044, 1045, 1046, 1047, 1048, 1049, 1050, 1051, 1052, 1053, 1054, 1055, 1073
 1109, 1113, 1114, 1115, 1116, 1117, 1118, 1119, 1120, 1121, 1122, 1123, 1124, 1142, 1178, 1182
 1183, 1184, 1185, 1186, 1187, 1188, 1189, 1190, 1191, 1192, 1193, 1211, 1247, 1251, 1252, 1253
 1254, 1255, 1256, 1257, 1258, 1259, 1260, 1261, 1262, 1280, 1316, 1320, 1321, 1322, 1323, 1324
 1325, 1326, 1327, 1328, 1329, 1330, 1331, 1349, 1385, 1389, 1390, 1391, 1392, 1393, 1394, 1395
 1396, 1397, 1398, 1399, 1400, 1418, 1454, 1458, 1459, 1460, 1461, 1462, 1463, 1464, 1465, 1466
 1467, 1468, 1469, 1487, 1523, 1527, 1528, 1529, 1530, 1531, 1532, 1533, 1534, 1535, 1536, 1537
 1538, 1556, 1592, 1596, 1597, 1598, 1599, 1600, 1601, 1602, 1603, 1604, 1605, 1606, 1607, 1625
 1661, 1665, 1666, 1667, 1668, 1669, 1670, 1671, 1672, 1673, 1674, 1675, 1676, 1694, 1730, 1734
 1735, 1736, 1737, 1738, 1739, 1740, 1741, 1742, 1743, 1744, 1745, 1763, 1799, 1803, 1804, 1805
 1806, 1807, 1808, 1809, 1810, 1811, 1812, 1813, 1814, 1832, 1868, 1872, 1873, 1874, 1875, 1876
 1877, 1878, 1879, 1880, 1881, 1882, 1883, 1901, 1937, 1941, 1942, 1943, 1944, 1945, 1946, 1947
 1948, 1949, 1950, 1951, 1952, 1970, 2006, 2010, 2011, 2012, 2013, 2014, 2015, 2016, 2017, 2018
 2019, 2020, 2021, 2039, 2075, 2079, 2080, 2081, 2082, 2083, 2084, 2085, 2086, 2087, 2088, 2089
 2090, 2108, 2144, 2148, 2149, 2150, 2151, 2152, 2153, 2154, 2155, 2156, 2157, 2158, 2159, 2177
 2213, 2217, 2218, 2219, 2220, 2221, 2222, 2223, 2224, 2225, 2226, 2227, 2228, 2246, 2282, 2286
 2287, 2288, 2289, 2290, 2291, 2292, 2293, 2294, 2295, 2296, 2297, 2315, 2351, 2355, 2356, 2357
 2358, 2359, 2360, 2361, 2362, 2363, 2364, 2365, 2366, 2384, 2420, 2424, 2425, 2426, 2427, 2428
 2429, 2430, 2431, 2432, 2433, 2434, 2435, 2453, 2489, 2493, 2494, 2495, 2496, 2497, 2498, 2499
 2500, 2501, 2502, 2503, 2504, 2522, 2558, 2562, 2563, 2564, 2565, 2566, 2567, 2568, 2569, 2570
 2571, 2572, 2573, 2591, 2627, 2631, 2632, 2633, 2634, 2635, 2636, 2637, 2638, 2639, 2640, 2641
 2642, 2660, 2696, 2700, 2701, 2702, 2703, 2704, 2705, 2706, 2707, 2708, 2709, 2710, 2711, 2729
 2765, 2769, 2770, 2771, 2772, 2773, 2774, 2775, 2776, 2777, 2778, 2779, 2780, 2798, 2834, 2838
 2839, 2840, 2841, 2842, 2843, 2844, 2845, 2846, 2847, 2848, 2849, 2867, 2903, 2907, 2908, 2909
 2910, 2911, 2912, 2913, 2914, 2915, 2916, 2917, 2918, 2936, 2972, 2976, 2977, 2978, 2979, 2980
 2981, 2982, 2983, 2984, 2985, 2986, 2987, 3005, 3041, 3045, 3046, 3047, 3048, 3049, 3050, 3051
 3052, 3053, 3054, 3055, 3056, 3074, 3110, 3114, 3115, 3116, 3117, 3118, 3119, 3120, 3121, 3122
 3123, 3124, 3125, 3143, 3179, 3183, 3184, 3185, 3186, 3187, 3188, 3189, 3190, 3191, 3192, 3193
 3194, 3212, 3248, 3252, 3253, 3254, 3255, 3256, 3257, 3258, 3259, 3260, 3261, 3262, 3263, 3281
 3317, 3321, 3322, 3323, 3324, 3325, 3326, 3327, 3328, 3329, 3330, 3331, 3332, 3350, 3386, 3390
 3391, 3392, 3393, 3394, 3395, 3396, 3397, 3398, 3399, 3400, 3401, 3419
*Elset, elset=_Surf-1_S4, internal, instance=Part-1, generate
   63,  3444,    69
*Surface, type=ELEMENT, name=Surf-1
_Surf-1_S6, S6
_Surf-1_S4, S4
*Elset, elset=_Surf-2_S6, internal, instance=Part-1
   34,   50,   53,   54,   55,   56,   57,   58,   59,   60,  103,  119,  122,  123,  124,  125
  126,  127,  128,  129,  172,  188,  191,  192,  193,  194,  195,  196,  197,  198,  241,  257
  260,  261,  262,  263,  264,  265,  266,  267,  310,  326,  329,  330,  331,  332,  333,  334
  335,  336,  379,  395,  398,  399,  400,  401,  402,  403,  404,  405,  448,  464,  467,  468
  469,  470,  471,  472,  473,  474,  517,  533,  536,  537,  538,  539,  540,  541,  542,  543
  586,  602,  605,  606,  607,  608,  609,  610,  611,  612,  655,  671,  674,  675,  676,  677
  678,  679,  680,  681,  724,  740,  743,  744,  745,  746,  747,  748,  749,  750,  793,  809
  812,  813,  814,  815,  816,  817,  818,  819,  862,  878,  881,  882,  883,  884,  885,  886
  887,  888,  931,  947,  950,  951,  952,  953,  954,  955,  956,  957, 1000, 1016, 1019, 1020
 1021, 1022, 1023, 1024, 1025, 1026, 1069, 1085, 1088, 1089, 1090, 1091, 1092, 1093, 1094, 1095
 1138, 1154, 1157, 1158, 1159, 1160, 1161, 1162, 1163, 1164, 1207, 1223, 1226, 1227, 1228, 1229
 1230, 1231, 1232, 1233, 1276, 1292, 1295, 1296, 1297, 1298, 1299, 1300, 1301, 1302, 1345, 1361
 1364, 1365, 1366, 1367, 1368, 1369, 1370, 1371, 1414, 1430, 1433, 1434, 1435, 1436, 1437, 1438
 1439, 1440, 1483, 1499, 1502, 1503, 1504, 1505, 1506, 1507, 1508, 1509, 1552, 1568, 1571, 1572
 1573, 1574, 1575, 1576, 1577, 1578, 1621, 1637, 1640, 1641, 1642, 1643, 1644, 1645, 1646, 1647
 1690, 1706, 1709, 1710, 1711, 1712, 1713, 1714, 1715, 1716, 1759, 1775, 1778, 1779, 1780, 1781
 1782, 1783, 1784, 1785, 1828, 1844, 1847, 1848, 1849, 1850, 1851, 1852, 1853, 1854, 1897, 1913
 1916, 1917, 1918, 1919, 1920, 1921, 1922, 1923, 1966, 1982, 1985, 1986, 1987, 1988, 1989, 1990
 1991, 1992, 2035, 2051, 2054, 2055, 2056, 2057, 2058, 2059, 2060, 2061, 2104, 2120, 2123, 2124
 2125, 2126, 2127, 2128, 2129, 2130, 2173, 2189, 2192, 2193, 2194, 2195, 2196, 2197, 2198, 2199
 2242, 2258, 2261, 2262, 2263, 2264, 2265, 2266, 2267, 2268, 2311, 2327, 2330, 2331, 2332, 2333
 2334, 2335, 2336, 2337, 2380, 2396, 2399, 2400, 2401, 2402, 2403, 2404, 2405, 2406, 2449, 2465
 2468, 2469, 2470, 2471, 2472, 2473, 2474, 2475, 2518, 2534, 2537, 2538, 2539, 2540, 2541, 2542
 2543, 2544, 2587, 2603, 2606, 2607, 2608, 2609, 2610, 2611, 2612, 2613, 2656, 2672, 2675, 2676
 2677, 2678, 2679, 2680, 2681, 2682, 2725, 2741, 2744, 2745, 2746, 2747, 2748, 2749, 2750, 2751
 2794, 2810, 2813, 2814, 2815, 2816, 2817, 2818, 2819, 2820, 2863, 2879, 2882, 2883, 2884, 2885
 2886, 2887, 2888, 2889, 2932, 2948, 2951, 2952, 2953, 2954, 2955, 2956, 2957, 2958, 3001, 3017
 3020, 3021, 3022, 3023, 3024, 3025, 3026, 3027, 3070, 3086, 3089, 3090, 3091, 3092, 3093, 3094
 3095, 3096, 3139, 3155, 3158, 3159, 3160, 3161, 3162, 3163, 3164, 3165, 3208, 3224, 3227, 3228
 3229, 3230, 3231, 3232, 3233, 3234, 3277, 3293, 3296, 3297, 3298, 3299, 3300, 3301, 3302, 3303
 3346, 3362, 3365, 3366, 3367, 3368, 3369, 3370, 3371, 3372, 3415, 3431, 3434, 3435, 3436, 3437
 3438, 3439, 3440, 3441
*Elset, elset=_Surf-2_S4, internal, instance=Part-1
   45,   47,   61,  114,  116,  130,  183,  185,  199,  252,  254,  268,  321,  323,  337,  390
  392,  406,  459,  461,  475,  528,  530,  544,  597,  599,  613,  666,  668,  682,  735,  737
  751,  804,  806,  820,  873,  875,  889,  942,  944,  958, 1011, 1013, 1027, 1080, 1082, 1096
 1149, 1151, 1165, 1218, 1220, 1234, 1287, 1289, 1303, 1356, 1358, 1372, 1425, 1427, 1441, 1494
 1496, 1510, 1563, 1565, 1579, 1632, 1634, 1648, 1701, 1703, 1717, 1770, 1772, 1786, 1839, 1841
 1855, 1908, 1910, 1924, 1977, 1979, 1993, 2046, 2048, 2062, 2115, 2117, 2131, 2184, 2186, 2200
 2253, 2255, 2269, 2322, 2324, 2338, 2391, 2393, 2407, 2460, 2462, 2476, 2529, 2531, 2545, 2598
 2600, 2614, 2667, 2669, 2683, 2736, 2738, 2752, 2805, 2807, 2821, 2874, 2876, 2890, 2943, 2945
 2959, 3012, 3014, 3028, 3081, 3083, 3097, 3150, 3152, 3166, 3219, 3221, 3235, 3288, 3290, 3304
 3357, 3359, 3373, 3426, 3428, 3442
*Elset, elset=_Surf-2_S3, internal, instance=Part-1, generate
   49,  3430,    69
*Elset, elset=_Surf-2_S5, internal, instance=Part-1, generate
   52,  3433,    69
*Surface, type=ELEMENT, name=Surf-2
_Surf-2_S6, S6
_Surf-2_S4, S4
_Surf-2_S3, S3
_Surf-2_S5, S5
*Elset, elset=_Surf-3_S6, internal, instance=Part-1, generate
    6,  3387,    69
*Elset, elset=_Surf-3_S4, internal, instance=Part-1
    7,   22,   23,   76,   91,   92,  145,  160,  161,  214,  229,  230,  283,  298,  299,  352
  367,  368,  421,  436,  437,  490,  505,  506,  559,  574,  575,  628,  643,  644,  697,  712
  713,  766,  781,  782,  835,  850,  851,  904,  919,  920,  973,  988,  989, 1042, 1057, 1058
 1111, 1126, 1127, 1180, 1195, 1196, 1249, 1264, 1265, 1318, 1333, 1334, 1387, 1402, 1403, 1456
 1471, 1472, 1525, 1540, 1541, 1594, 1609, 1610, 1663, 1678, 1679, 1732, 1747, 1748, 1801, 1816
 1817, 1870, 1885, 1886, 1939, 1954, 1955, 2008, 2023, 2024, 2077, 2092, 2093, 2146, 2161, 2162
 2215, 2230, 2231, 2284, 2299, 2300, 2353, 2368, 2369, 2422, 2437, 2438, 2491, 2506, 2507, 2560
 2575, 2576, 2629, 2644, 2645, 2698, 2713, 2714, 2767, 2782, 2783, 2836, 2851, 2852, 2905, 2920
 2921, 2974, 2989, 2990, 3043, 3058, 3059, 3112, 3127, 3128, 3181, 3196, 3197, 3250, 3265, 3266
 3319, 3334, 3335, 3388, 3403, 3404
*Elset, elset=_Surf-3_S3, internal, instance=Part-1
    8,   37,   65,   66,   77,  106,  134,  135,  146,  175,  203,  204,  215,  244,  272,  273
  284,  313,  341,  342,  353,  382,  410,  411,  422,  451,  479,  480,  491,  520,  548,  549
  560,  589,  617,  618,  629,  658,  686,  687,  698,  727,  755,  756,  767,  796,  824,  825
  836,  865,  893,  894,  905,  934,  962,  963,  974, 1003, 1031, 1032, 1043, 1072, 1100, 1101
 1112, 1141, 1169, 1170, 1181, 1210, 1238, 1239, 1250, 1279, 1307, 1308, 1319, 1348, 1376, 1377
 1388, 1417, 1445, 1446, 1457, 1486, 1514, 1515, 1526, 1555, 1583, 1584, 1595, 1624, 1652, 1653
 1664, 1693, 1721, 1722, 1733, 1762, 1790, 1791, 1802, 1831, 1859, 1860, 1871, 1900, 1928, 1929
 1940, 1969, 1997, 1998, 2009, 2038, 2066, 2067, 2078, 2107, 2135, 2136, 2147, 2176, 2204, 2205
 2216, 2245, 2273, 2274, 2285, 2314, 2342, 2343, 2354, 2383, 2411, 2412, 2423, 2452, 2480, 2481
 2492, 2521, 2549, 2550, 2561, 2590, 2618, 2619, 2630, 2659, 2687, 2688, 2699, 2728, 2756, 2757
 2768, 2797, 2825, 2826, 2837, 2866, 2894, 2895, 2906, 2935, 2963, 2964, 2975, 3004, 3032, 3033
 3044, 3073, 3101, 3102, 3113, 3142, 3170, 3171, 3182, 3211, 3239, 3240, 3251, 3280, 3308, 3309
 3320, 3349, 3377, 3378, 3389, 3418, 3446, 3447
*Surface, type=ELEMENT, name=Surf-3
_Surf-3_S6, S6
_Surf-3_S4, S4
_Surf-3_S3, S3
*Elset, elset=_Surf-4_S4, internal, instance=Part-1
    1,   40,   41,   70,  109,  110,  139,  178,  179,  208,  247,  248,  277,  316,  317,  346
  385,  386,  415,  454,  455,  484,  523,  524,  553,  592,  593,  622,  661,  662,  691,  730
  731,  760,  799,  800,  829,  868,  869,  898,  937,  938,  967, 1006, 1007, 1036, 1075, 1076
 1105, 1144, 1145, 1174, 1213, 1214, 1243, 1282, 1283, 1312, 1351, 1352, 1381, 1420, 1421, 1450
 1489, 1490, 1519, 1558, 1559, 1588, 1627, 1628, 1657, 1696, 1697, 1726, 1765, 1766, 1795, 1834
 1835, 1864, 1903, 1904, 1933, 1972, 1973, 2002, 2041, 2042, 2071, 2110, 2111, 2140, 2179, 2180
 2209, 2248, 2249, 2278, 2317, 2318, 2347, 2386, 2387, 2416, 2455, 2456, 2485, 2524, 2525, 2554
 2593, 2594, 2623, 2662, 2663, 2692, 2731, 2732, 2761, 2800, 2801, 2830, 2869, 2870, 2899, 2938
 2939, 2968, 3007, 3008, 3037, 3076, 3077, 3106, 3145, 3146, 3175, 3214, 3215, 3244, 3283, 3284
 3313, 3352, 3353, 3382, 3421, 3422
*Elset, elset=_Surf-4_S3, internal, instance=Part-1
    2,    3,   71,   72,  140,  141,  209,  210,  278,  279,  347,  348,  416,  417,  485,  486
  554,  555,  623,  624,  692,  693,  761,  762,  830,  831,  899,  900,  968,  969, 1037, 1038
 1106, 1107, 1175, 1176, 1244, 1245, 1313, 1314, 1382, 1383, 1451, 1452, 1520, 1521, 1589, 1590
 1658, 1659, 1727, 1728, 1796, 1797, 1865, 1866, 1934, 1935, 2003, 2004, 2072, 2073, 2141, 2142
 2210, 2211, 2279, 2280, 2348, 2349, 2417, 2418, 2486, 2487, 2555, 2556, 2624, 2625, 2693, 2694
 2762, 2763, 2831, 2832, 2900, 2901, 2969, 2970, 3038, 3039, 3107, 3108, 3176, 3177, 3245, 3246
 3314, 3315, 3383, 3384
*Elset, elset=_Surf-4_S6, internal, instance=Part-1, generate
   67,  3448,    69
*Surface, type=ELEMENT, name=Surf-4
_Surf-4_S4, S4
_Surf-4_S3, S3
_Surf-4_S6, S6
*Elset, elset=_Surf-5_S2, internal, instance=Part-1, generate
 3382,  3450,     1
*Surface, type=ELEMENT, name=Surf-5
_Surf-5_S2, S2
*Elset, elset=_Surf-6_S1, internal, instance=Part-1, generate
  1,  69,   1
*Surface, type=ELEMENT, name=Surf-6
_Surf-6_S1, S1
*End Assembly
*Amplitude, name=Amp-x+, definition=SMOOTH STEP
             0.,            560.,          10000.,            560.
*Amplitude, name=Amp-x-, definition=SMOOTH STEP
             0.,            560.,          10000.,            560.
*Amplitude, name=Amp-y+, definition=SMOOTH STEP
             0.,            560.,          10000.,            560.
*Amplitude, name=Amp-y-, definition=SMOOTH STEP
             0.,            560.,          10000.,            560.
*Amplitude, name=Amp-z+, definition=SMOOTH STEP
             0.,            560.,          10000.,            560.
*Amplitude, name=Amp-z-, definition=SMOOTH STEP
             0.,            560.,          10000.,            560.
** 
** MATERIALS
** 
*Material, name=Material-1
*Conductivity
202.,100.
202.,200.
204.,300.
201.,400.
194.,500.
190.,550.
*Density
2800., 20.
2800.,200.
*Elastic
 6.8e+07, 0.29,  20.
 6.5e+07, 0.29, 100.
 6.1e+07, 0.29, 200.
 5.7e+07, 0.29, 300.
 5.2e+07, 0.29, 400.
 4.7e+07, 0.29, 500.
*Expansion
 2e-05,100.
 3e-05,200.
 3e-05,300.
 3e-05,400.
 3e-05,500.
 3e-05,550.
*Specific Heat
 910.,100.
 956.,200.
1007.,300.
1052.,400.
1124.,500.
1150.,550.
** 
** INTERACTION PROPERTIES
** 
*Film Property, name=IntProp-x+
30., 560.
*Film Property, name=IntProp-x-
30., 560.
*Film Property, name=IntProp-y+
30., 560.
*Film Property, name=IntProp-y-
30., 560.
*Film Property, name=IntProp-z+
30., 560.
*Film Property, name=IntProp-z-
30., 560.
** 
** PREDEFINED FIELDS
** 
** Name: Predefined Field-x+   Type: Temperature
*Initial Conditions, type=TEMPERATURE
Set-3, 30.
** Name: Predefined Field-x-   Type: Temperature
*Initial Conditions, type=TEMPERATURE
Set-4, 30.
** Name: Predefined Field-y+   Type: Temperature
*Initial Conditions, type=TEMPERATURE
Set-1, 30.
** Name: Predefined Field-y-   Type: Temperature
*Initial Conditions, type=TEMPERATURE
Set-2, 30.
** Name: Predefined Field-z+   Type: Temperature
*Initial Conditions, type=TEMPERATURE
Set-5, 30.
** Name: Predefined Field-z-   Type: Temperature
*Initial Conditions, type=TEMPERATURE
Set-6, 30.
** Name: initTempAll   Type: Temperature
*Initial Conditions, type=TEMPERATURE
Part-1.Set-All, 30.
** ----------------------------------------------------------------
** 
** STEP: Step-1
** 
*Step, name=Step-1, nlgeom=NO, inc=1000000
*Heat Transfer, end=PERIOD, deltmx=3., mxdem=0.01
0.01, 10000., 0.001, 600., 
** 
** INTERACTIONS
** 
** Interaction: Int-x+
*Sfilm, amplitude=Amp-x+
Surf-3, F, 1., IntProp-x+
** Interaction: Int-x-
*Sfilm, amplitude=Amp-x-
Surf-4, F, 1., IntProp-x-
** Interaction: Int-y+
*Sfilm, amplitude=Amp-y+
Surf-1, F, 1., IntProp-y+
** Interaction: Int-y-
*Sfilm, amplitude=Amp-y-
Surf-2, F, 1., IntProp-y-
** Interaction: Int-z+
*Sfilm, amplitude=Amp-z+
Surf-5, F, 1., IntProp-z+
** Interaction: Int-z-
*Sfilm, amplitude=Amp-z-
Surf-6, F, 1., IntProp-z-
** 
** OUTPUT REQUESTS
** 
*Restart, write, frequency=0
** 
** FIELD OUTPUT: F-Output-1
** 
*Output, field, variable=PRESELECT
** 
** HISTORY OUTPUT: H-Output-1
** 
*Output, history
*Radiation Output
FTEMP, 
*Contact Output
HTL, 
*End Step
