** snaparrow_gc.inp
*Preprint, echo=NO, model=NO, history=NO, contact=NO
**
** PARTS
**
*Part, name=Clip
*Node
      1,          -4.,        -0.25,          -2.
      2,          -4.,        -0.25,           2.
      3,          -4.,         0.75,           2.
      4,          -4.,         0.75,          -2.
      5,          -6.,        -0.25,          -2.
      6,          -6.,        -0.25,           2.
      7,          -6.,         0.75,           2.
      8,          -6.,         0.75,          -2.
      9,          -4.,        -1.75,          -2.
     10,          -4.,        -1.75,           2.
     11,          -6.,        -1.75,           2.
     12,          -6.,        -1.75,          -2.
     13,         -14.,        -0.25,          -2.
     14,         -14.,        -0.25,           2.
     15,         -14.,        -1.75,          -2.
     16,         -14.,        -1.75,           2.
     17,         -16.,        -0.25,           2.
     18,         -16.,        -0.25,           6.
     19,         -16.,           5.,           6.
     20,         -16.,           5.,           2.
     21,         -14.,        -0.25,           6.
     22,         -14.,           5.,           6.
     23,         -14.,           5.,           2.
     24,         -16.,        -1.75,           2.
     25,         -16.,        -1.75,           6.
     26,         -14.,        -1.75,           6.
     27,         -16.,        -1.75,          -2.
     28,         -16.,        -0.25,          -2.
     29,         -16.,        -1.75,          -6.
     30,         -16.,        -0.25,          -6.
     31,         -14.,        -0.25,          -6.
     32,         -14.,        -1.75,          -6.
     33,         -14.,           5.,          -2.
     34,         -16.,           5.,          -2.
     35,         -14.,          -7.,          -2.
     36,         -16.,          -7.,          -2.
     37,         -16.,          -7.,          -6.
     38,         -14.,          -7.,          -6.
     39,         -16.,           5.,          -6.
     40,         -14.,           5.,          -6.
     41,         -14.,          -7.,           2.
     42,         -16.,          -7.,           2.
     43,         -14.,          -7.,           6.
     44,         -16.,          -7.,           6.
     45,          -2.,        -1.25,          -2.
     46,          -2.,        -1.25,           2.
     47,          -2.,        -1.75,           2.
     48,          -2.,        -1.75,          -2.
     49,          -4.,        -0.25,         -1.5
     50,          -4.,        -0.25,          -1.
     51,          -4.,        -0.25,         -0.5
     52,          -4.,        -0.25,           0.
     53,          -4.,        -0.25,          0.5
     54,          -4.,        -0.25,           1.
     55,          -4.,        -0.25,          1.5
     56,          -4.,           0.,           2.
     57,          -4.,         0.25,           2.
     58,          -4.,          0.5,           2.
     59,          -4.,         0.75,          1.5
     60,          -4.,         0.75,           1.
     61,          -4.,         0.75,          0.5
     62,          -4.,         0.75,           0.
     63,          -4.,         0.75,         -0.5
     64,          -4.,         0.75,          -1.
     65,          -4.,         0.75,         -1.5
     66,          -4.,          0.5,          -2.
     67,          -4.,         0.25,          -2.
     68,          -4.,           0.,          -2.
     69,          -6.,        -0.25,         -1.5
     70,          -6.,        -0.25,          -1.
     71,          -6.,        -0.25,         -0.5
     72,          -6.,        -0.25,           0.
     73,          -6.,        -0.25,          0.5
     74,          -6.,        -0.25,           1.
     75,          -6.,        -0.25,          1.5
     76,          -6.,           0.,           2.
     77,          -6.,         0.25,           2.
     78,          -6.,          0.5,           2.
     79,          -6.,         0.75,          1.5
     80,          -6.,         0.75,           1.
     81,          -6.,         0.75,          0.5
     82,          -6.,         0.75,           0.
     83,          -6.,         0.75,         -0.5
     84,          -6.,         0.75,          -1.
     85,          -6.,         0.75,         -1.5
     86,          -6.,          0.5,          -2.
     87,          -6.,         0.25,          -2.
     88,          -6.,           0.,          -2.
     89,  -5.66666651,         0.75,          -2.
     90,  -5.33333349,         0.75,          -2.
     91,          -5.,         0.75,          -2.
     92,  -4.66666651,         0.75,          -2.
     93,  -4.33333349,         0.75,          -2.
     94,  -4.33333349,        -0.25,          -2.
     95,  -4.66666651,        -0.25,          -2.
     96,          -5.,        -0.25,          -2.
     97,  -5.33333349,        -0.25,          -2.
     98,  -5.66666651,        -0.25,          -2.
     99,  -4.33333349,         0.75,           2.
    100,  -4.66666651,         0.75,           2.
    101,          -5.,         0.75,           2.
    102,  -5.33333349,         0.75,           2.
    103,  -5.66666651,         0.75,           2.
    104,  -5.66666651,        -0.25,           2.
    105,  -5.33333349,        -0.25,           2.
    106,          -5.,        -0.25,           2.
    107,  -4.66666651,        -0.25,           2.
    108,  -4.33333349,        -0.25,           2.
    109,          -4.,        -1.75,         -1.5
    110,          -4.,        -1.75,          -1.
    111,          -4.,        -1.75,         -0.5
    112,          -4.,        -1.75,           0.
    113,          -4.,        -1.75,          0.5
    114,          -4.,        -1.75,           1.
    115,          -4.,        -1.75,          1.5
    116,  -4.33333349,        -1.75,           2.
    117,  -4.66666651,        -1.75,           2.
    118,          -5.,        -1.75,           2.
    119,  -5.33333349,        -1.75,           2.
    120,  -5.66666651,        -1.75,           2.
    121,          -6.,        -1.75,          1.5
    122,          -6.,        -1.75,           1.
    123,          -6.,        -1.75,          0.5
    124,          -6.,        -1.75,           0.
    125,          -6.,        -1.75,         -0.5
    126,          -6.,        -1.75,          -1.
    127,          -6.,        -1.75,         -1.5
    128,  -5.66666651,        -1.75,          -2.
    129,  -5.33333349,        -1.75,          -2.
    130,          -5.,        -1.75,          -2.
    131,  -4.66666651,        -1.75,          -2.
    132,  -4.33333349,        -1.75,          -2.
    133,          -6.,       -1.375,          -2.
    134,          -6.,          -1.,          -2.
    135,          -6.,       -0.625,          -2.
    136,          -4.,       -0.625,          -2.
    137,          -4.,          -1.,          -2.
    138,          -4.,       -1.375,          -2.
    139,          -6.,       -0.625,           2.
    140,          -6.,          -1.,           2.
    141,          -6.,       -1.375,           2.
    142,          -4.,       -1.375,           2.
    143,          -4.,          -1.,           2.
    144,          -4.,       -0.625,           2.
    145,         -6.5,        -0.25,          -2.
    146,          -7.,        -0.25,          -2.
    147,         -7.5,        -0.25,          -2.
    148,          -8.,        -0.25,          -2.
    149,         -8.5,        -0.25,          -2.
    150,          -9.,        -0.25,          -2.
    151,         -9.5,        -0.25,          -2.
    152,         -10.,        -0.25,          -2.
    153,        -10.5,        -0.25,          -2.
    154,         -11.,        -0.25,          -2.
    155,        -11.5,        -0.25,          -2.
    156,         -12.,        -0.25,          -2.
    157,        -12.5,        -0.25,          -2.
    158,         -13.,        -0.25,          -2.
    159,        -13.5,        -0.25,          -2.
    160,         -14.,        -0.25,         -1.5
    161,         -14.,        -0.25,          -1.
    162,         -14.,        -0.25,         -0.5
    163,         -14.,        -0.25,           0.
    164,         -14.,        -0.25,          0.5
    165,         -14.,        -0.25,           1.
    166,         -14.,        -0.25,          1.5
    167,        -13.5,        -0.25,           2.
    168,         -13.,        -0.25,           2.
    169,        -12.5,        -0.25,           2.
    170,         -12.,        -0.25,           2.
    171,        -11.5,        -0.25,           2.
    172,         -11.,        -0.25,           2.
    173,        -10.5,        -0.25,           2.
    174,         -10.,        -0.25,           2.
    175,         -9.5,        -0.25,           2.
    176,          -9.,        -0.25,           2.
    177,         -8.5,        -0.25,           2.
    178,          -8.,        -0.25,           2.
    179,         -7.5,        -0.25,           2.
    180,          -7.,        -0.25,           2.
    181,         -6.5,        -0.25,           2.
    182,        -13.5,        -1.75,          -2.
    183,         -13.,        -1.75,          -2.
    184,        -12.5,        -1.75,          -2.
    185,         -12.,        -1.75,          -2.
    186,        -11.5,        -1.75,          -2.
    187,         -11.,        -1.75,          -2.
    188,        -10.5,        -1.75,          -2.
    189,         -10.,        -1.75,          -2.
    190,         -9.5,        -1.75,          -2.
    191,          -9.,        -1.75,          -2.
    192,         -8.5,        -1.75,          -2.
    193,          -8.,        -1.75,          -2.
    194,         -7.5,        -1.75,          -2.
    195,          -7.,        -1.75,          -2.
    196,         -6.5,        -1.75,          -2.
    197,         -14.,        -1.75,          1.5
    198,         -14.,        -1.75,           1.
    199,         -14.,        -1.75,          0.5
    200,         -14.,        -1.75,           0.
    201,         -14.,        -1.75,         -0.5
    202,         -14.,        -1.75,          -1.
    203,         -14.,        -1.75,         -1.5
    204,         -6.5,        -1.75,           2.
    205,          -7.,        -1.75,           2.
    206,         -7.5,        -1.75,           2.
    207,          -8.,        -1.75,           2.
    208,         -8.5,        -1.75,           2.
    209,          -9.,        -1.75,           2.
    210,         -9.5,        -1.75,           2.
    211,         -10.,        -1.75,           2.
    212,        -10.5,        -1.75,           2.
    213,         -11.,        -1.75,           2.
    214,        -11.5,        -1.75,           2.
    215,         -12.,        -1.75,           2.
    216,        -12.5,        -1.75,           2.
    217,         -13.,        -1.75,           2.
    218,        -13.5,        -1.75,           2.
    219,         -14.,       -1.375,           2.
    220,         -14.,          -1.,           2.
    221,         -14.,       -0.625,           2.
    222,         -14.,       -0.625,          -2.
    223,         -14.,          -1.,          -2.
    224,         -14.,       -1.375,          -2.
    225,         -16.,        -0.25,          2.5
    226,         -16.,        -0.25,           3.
    227,         -16.,        -0.25,          3.5
    228,         -16.,        -0.25,           4.
    229,         -16.,        -0.25,          4.5
    230,         -16.,        -0.25,           5.
    231,         -16.,        -0.25,          5.5
    232,         -16.,  0.275000006,           6.
    233,         -16.,  0.800000012,           6.
    234,         -16.,   1.32500005,           6.
    235,         -16.,   1.85000002,           6.
    236,         -16.,        2.375,           6.
    237,         -16.,    2.9000001,           6.
    238,         -16.,   3.42499995,           6.
    239,         -16.,   3.95000005,           6.
    240,         -16.,    4.4749999,           6.
    241,         -16.,           5.,          5.5
    242,         -16.,           5.,           5.
    243,         -16.,           5.,          4.5
    244,         -16.,           5.,           4.
    245,         -16.,           5.,          3.5
    246,         -16.,           5.,           3.
    247,         -16.,           5.,          2.5
    248,         -16.,    4.4749999,           2.
    249,         -16.,   3.95000005,           2.
    250,         -16.,   3.42499995,           2.
    251,         -16.,    2.9000001,           2.
    252,         -16.,        2.375,           2.
    253,         -16.,   1.85000002,           2.
    254,         -16.,   1.32500005,           2.
    255,         -16.,  0.800000012,           2.
    256,         -16.,  0.275000006,           2.
    257,         -14.,        -0.25,          5.5
    258,         -14.,        -0.25,           5.
    259,         -14.,        -0.25,          4.5
    260,         -14.,        -0.25,           4.
    261,         -14.,        -0.25,          3.5
    262,         -14.,        -0.25,           3.
    263,         -14.,        -0.25,          2.5
    264,         -14.,    4.4749999,           6.
    265,         -14.,   3.95000005,           6.
    266,         -14.,   3.42499995,           6.
    267,         -14.,    2.9000001,           6.
    268,         -14.,        2.375,           6.
    269,         -14.,   1.85000002,           6.
    270,         -14.,   1.32500005,           6.
    271,         -14.,  0.800000012,           6.
    272,         -14.,  0.275000006,           6.
    273,         -14.,           5.,          2.5
    274,         -14.,           5.,           3.
    275,         -14.,           5.,          3.5
    276,         -14.,           5.,           4.
    277,         -14.,           5.,          4.5
    278,         -14.,           5.,           5.
    279,         -14.,           5.,          5.5
    280,         -14.,  0.275000006,           2.
    281,         -14.,  0.800000012,           2.
    282,         -14.,   1.32500005,           2.
    283,         -14.,   1.85000002,           2.
    284,         -14.,        2.375,           2.
    285,         -14.,    2.9000001,           2.
    286,         -14.,   3.42499995,           2.
    287,         -14.,   3.95000005,           2.
    288,         -14.,    4.4749999,           2.
    289,        -15.5,           5.,           2.
    290,         -15.,           5.,           2.
    291,        -14.5,           5.,           2.
    292,        -14.5,        -0.25,           2.
    293,         -15.,        -0.25,           2.
    294,        -15.5,        -0.25,           2.
    295,        -14.5,           5.,           6.
    296,         -15.,           5.,           6.
    297,        -15.5,           5.,           6.
    298,        -15.5,        -0.25,           6.
    299,         -15.,        -0.25,           6.
    300,        -14.5,        -0.25,           6.
    301,        -15.5,        -1.75,           2.
    302,         -15.,        -1.75,           2.
    303,        -14.5,        -1.75,           2.
    304,         -16.,        -1.75,          5.5
    305,         -16.,        -1.75,           5.
    306,         -16.,        -1.75,          4.5
    307,         -16.,        -1.75,           4.
    308,         -16.,        -1.75,          3.5
    309,         -16.,        -1.75,           3.
    310,         -16.,        -1.75,          2.5
    311,        -14.5,        -1.75,           6.
    312,         -15.,        -1.75,           6.
    313,        -15.5,        -1.75,           6.
    314,         -14.,        -1.75,          2.5
    315,         -14.,        -1.75,           3.
    316,         -14.,        -1.75,          3.5
    317,         -14.,        -1.75,           4.
    318,         -14.,        -1.75,          4.5
    319,         -14.,        -1.75,           5.
    320,         -14.,        -1.75,          5.5
    321,         -14.,       -0.625,           6.
    322,         -14.,          -1.,           6.
    323,         -14.,       -1.375,           6.
    324,         -16.,       -1.375,           6.
    325,         -16.,          -1.,           6.
    326,         -16.,       -0.625,           6.
    327,         -16.,       -0.625,           2.
    328,         -16.,          -1.,           2.
    329,         -16.,       -1.375,           2.
    330,         -16.,        -1.75,         -1.5
    331,         -16.,        -1.75,          -1.
    332,         -16.,        -1.75,         -0.5
    333,         -16.,        -1.75,           0.
    334,         -16.,        -1.75,          0.5
    335,         -16.,        -1.75,           1.
    336,         -16.,        -1.75,          1.5
    337,         -16.,        -0.25,          1.5
    338,         -16.,        -0.25,           1.
    339,         -16.,        -0.25,          0.5
    340,         -16.,        -0.25,           0.
    341,         -16.,        -0.25,         -0.5
    342,         -16.,        -0.25,          -1.
    343,         -16.,        -0.25,         -1.5
    344,         -16.,       -0.625,          -2.
    345,         -16.,          -1.,          -2.
    346,         -16.,       -1.375,          -2.
    347,        -15.5,        -0.25,          -2.
    348,         -15.,        -0.25,          -2.
    349,        -14.5,        -0.25,          -2.
    350,        -14.5,        -1.75,          -2.
    351,         -15.,        -1.75,          -2.
    352,        -15.5,        -1.75,          -2.
    353,         -16.,        -1.75,         -5.5
    354,         -16.,        -1.75,          -5.
    355,         -16.,        -1.75,         -4.5
    356,         -16.,        -1.75,          -4.
    357,         -16.,        -1.75,         -3.5
    358,         -16.,        -1.75,          -3.
    359,         -16.,        -1.75,         -2.5
    360,         -16.,        -0.25,         -2.5
    361,         -16.,        -0.25,          -3.
    362,         -16.,        -0.25,         -3.5
    363,         -16.,        -0.25,          -4.
    364,         -16.,        -0.25,         -4.5
    365,         -16.,        -0.25,          -5.
    366,         -16.,        -0.25,         -5.5
    367,         -16.,       -0.625,          -6.
    368,         -16.,          -1.,          -6.
    369,         -16.,       -1.375,          -6.
    370,         -14.,        -1.75,         -2.5
    371,         -14.,        -1.75,          -3.
    372,         -14.,        -1.75,         -3.5
    373,         -14.,        -1.75,          -4.
    374,         -14.,        -1.75,         -4.5
    375,         -14.,        -1.75,          -5.
    376,         -14.,        -1.75,         -5.5
    377,         -14.,        -0.25,         -5.5
    378,         -14.,        -0.25,          -5.
    379,         -14.,        -0.25,         -4.5
    380,         -14.,        -0.25,          -4.
    381,         -14.,        -0.25,         -3.5
    382,         -14.,        -0.25,          -3.
    383,         -14.,        -0.25,         -2.5
    384,         -14.,       -1.375,          -6.
    385,         -14.,          -1.,          -6.
    386,         -14.,       -0.625,          -6.
    387,        -15.5,        -0.25,          -6.
    388,         -15.,        -0.25,          -6.
    389,        -14.5,        -0.25,          -6.
    390,        -14.5,        -1.75,          -6.
    391,         -15.,        -1.75,          -6.
    392,        -15.5,        -1.75,          -6.
    393,         -14.,  0.275000006,          -2.
    394,         -14.,  0.800000012,          -2.
    395,         -14.,   1.32500005,          -2.
    396,         -14.,   1.85000002,          -2.
    397,         -14.,        2.375,          -2.
    398,         -14.,    2.9000001,          -2.
    399,         -14.,   3.42499995,          -2.
    400,         -14.,   3.95000005,          -2.
    401,         -14.,    4.4749999,          -2.
    402,         -14.,           5.,         -1.5
    403,         -14.,           5.,          -1.
    404,         -14.,           5.,         -0.5
    405,         -14.,           5.,           0.
    406,         -14.,           5.,          0.5
    407,         -14.,           5.,           1.
    408,         -14.,           5.,          1.5
    409,         -16.,    4.4749999,          -2.
    410,         -16.,   3.95000005,          -2.
    411,         -16.,   3.42499995,          -2.
    412,         -16.,    2.9000001,          -2.
    413,         -16.,        2.375,          -2.
    414,         -16.,   1.85000002,          -2.
    415,         -16.,   1.32500005,          -2.
    416,         -16.,  0.800000012,          -2.
    417,         -16.,  0.275000006,          -2.
    418,         -16.,           5.,          1.5
    419,         -16.,           5.,           1.
    420,         -16.,           5.,          0.5
    421,         -16.,           5.,           0.
    422,         -16.,           5.,         -0.5
    423,         -16.,           5.,          -1.
    424,         -16.,           5.,         -1.5
    425,        -14.5,           5.,          -2.
    426,         -15.,           5.,          -2.
    427,        -15.5,           5.,          -2.
    428,        -14.5,          -7.,          -2.
    429,         -15.,          -7.,          -2.
    430,        -15.5,          -7.,          -2.
    431,         -16.,          -7.,         -2.5
    432,         -16.,          -7.,          -3.
    433,         -16.,          -7.,         -3.5
    434,         -16.,          -7.,          -4.
    435,         -16.,          -7.,         -4.5
    436,         -16.,          -7.,          -5.
    437,         -16.,          -7.,         -5.5
    438,        -15.5,          -7.,          -6.
    439,         -15.,          -7.,          -6.
    440,        -14.5,          -7.,          -6.
    441,         -14.,          -7.,         -5.5
    442,         -14.,          -7.,          -5.
    443,         -14.,          -7.,         -4.5
    444,         -14.,          -7.,          -4.
    445,         -14.,          -7.,         -3.5
    446,         -14.,          -7.,          -3.
    447,         -14.,          -7.,         -2.5
    448,         -14.,  -6.52272749,          -6.
    449,         -14.,   -6.0454545,          -6.
    450,         -14.,  -5.56818199,          -6.
    451,         -14.,    -5.090909,          -6.
    452,         -14.,  -4.61363649,          -6.
    453,         -14.,  -4.13636351,          -6.
    454,         -14.,    -3.659091,          -6.
    455,         -14.,  -3.18181825,          -6.
    456,         -14.,   -2.7045455,          -6.
    457,         -14.,  -2.22727275,          -6.
    458,         -14.,  -2.22727275,          -2.
    459,         -14.,   -2.7045455,          -2.
    460,         -14.,  -3.18181825,          -2.
    461,         -14.,    -3.659091,          -2.
    462,         -14.,  -4.13636351,          -2.
    463,         -14.,  -4.61363649,          -2.
    464,         -14.,    -5.090909,          -2.
    465,         -14.,  -5.56818199,          -2.
    466,         -14.,   -6.0454545,          -2.
    467,         -14.,  -6.52272749,          -2.
    468,         -16.,  -2.22727275,          -6.
    469,         -16.,   -2.7045455,          -6.
    470,         -16.,  -3.18181825,          -6.
    471,         -16.,    -3.659091,          -6.
    472,         -16.,  -4.13636351,          -6.
    473,         -16.,  -4.61363649,          -6.
    474,         -16.,    -5.090909,          -6.
    475,         -16.,  -5.56818199,          -6.
    476,         -16.,   -6.0454545,          -6.
    477,         -16.,  -6.52272749,          -6.
    478,         -16.,  -6.52272749,          -2.
    479,         -16.,   -6.0454545,          -2.
    480,         -16.,  -5.56818199,          -2.
    481,         -16.,    -5.090909,          -2.
    482,         -16.,  -4.61363649,          -2.
    483,         -16.,  -4.13636351,          -2.
    484,         -16.,    -3.659091,          -2.
    485,         -16.,  -3.18181825,          -2.
    486,         -16.,   -2.7045455,          -2.
    487,         -16.,  -2.22727275,          -2.
    488,         -16.,           5.,         -2.5
    489,         -16.,           5.,          -3.
    490,         -16.,           5.,         -3.5
    491,         -16.,           5.,          -4.
    492,         -16.,           5.,         -4.5
    493,         -16.,           5.,          -5.
    494,         -16.,           5.,         -5.5
    495,         -16.,    4.4749999,          -6.
    496,         -16.,   3.95000005,          -6.
    497,         -16.,   3.42499995,          -6.
    498,         -16.,    2.9000001,          -6.
    499,         -16.,        2.375,          -6.
    500,         -16.,   1.85000002,          -6.
    501,         -16.,   1.32500005,          -6.
    502,         -16.,  0.800000012,          -6.
    503,         -16.,  0.275000006,          -6.
    504,         -14.,           5.,         -5.5
    505,         -14.,           5.,          -5.
    506,         -14.,           5.,         -4.5
    507,         -14.,           5.,          -4.
    508,         -14.,           5.,         -3.5
    509,         -14.,           5.,          -3.
    510,         -14.,           5.,         -2.5
    511,         -14.,  0.275000006,          -6.
    512,         -14.,  0.800000012,          -6.
    513,         -14.,   1.32500005,          -6.
    514,         -14.,   1.85000002,          -6.
    515,         -14.,        2.375,          -6.
    516,         -14.,    2.9000001,          -6.
    517,         -14.,   3.42499995,          -6.
    518,         -14.,   3.95000005,          -6.
    519,         -14.,    4.4749999,          -6.
    520,        -14.5,           5.,          -6.
    521,         -15.,           5.,          -6.
    522,        -15.5,           5.,          -6.
    523,         -14.,          -7.,         -1.5
    524,         -14.,          -7.,          -1.
    525,         -14.,          -7.,         -0.5
    526,         -14.,          -7.,           0.
    527,         -14.,          -7.,          0.5
    528,         -14.,          -7.,           1.
    529,         -14.,          -7.,          1.5
    530,        -14.5,          -7.,           2.
    531,         -15.,          -7.,           2.
    532,        -15.5,          -7.,           2.
    533,         -16.,          -7.,          1.5
    534,         -16.,          -7.,           1.
    535,         -16.,          -7.,          0.5
    536,         -16.,          -7.,           0.
    537,         -16.,          -7.,         -0.5
    538,         -16.,          -7.,          -1.
    539,         -16.,          -7.,         -1.5
    540,         -16.,  -6.52272749,           2.
    541,         -16.,   -6.0454545,           2.
    542,         -16.,  -5.56818199,           2.
    543,         -16.,    -5.090909,           2.
    544,         -16.,  -4.61363649,           2.
    545,         -16.,  -4.13636351,           2.
    546,         -16.,    -3.659091,           2.
    547,         -16.,  -3.18181825,           2.
    548,         -16.,   -2.7045455,           2.
    549,         -16.,  -2.22727275,           2.
    550,         -14.,  -2.22727275,           2.
    551,         -14.,   -2.7045455,           2.
    552,         -14.,  -3.18181825,           2.
    553,         -14.,    -3.659091,           2.
    554,         -14.,  -4.13636351,           2.
    555,         -14.,  -4.61363649,           2.
    556,         -14.,    -5.090909,           2.
    557,         -14.,  -5.56818199,           2.
    558,         -14.,   -6.0454545,           2.
    559,         -14.,  -6.52272749,           2.
    560,         -14.,          -7.,          2.5
    561,         -14.,          -7.,           3.
    562,         -14.,          -7.,          3.5
    563,         -14.,          -7.,           4.
    564,         -14.,          -7.,          4.5
    565,         -14.,          -7.,           5.
    566,         -14.,          -7.,          5.5
    567,        -14.5,          -7.,           6.
    568,         -15.,          -7.,           6.
    569,        -15.5,          -7.,           6.
    570,         -16.,          -7.,          5.5
    571,         -16.,          -7.,           5.
    572,         -16.,          -7.,          4.5
    573,         -16.,          -7.,           4.
    574,         -16.,          -7.,          3.5
    575,         -16.,          -7.,           3.
    576,         -16.,          -7.,          2.5
    577,         -16.,  -6.52272749,           6.
    578,         -16.,   -6.0454545,           6.
    579,         -16.,  -5.56818199,           6.
    580,         -16.,    -5.090909,           6.
    581,         -16.,  -4.61363649,           6.
    582,         -16.,  -4.13636351,           6.
    583,         -16.,    -3.659091,           6.
    584,         -16.,  -3.18181825,           6.
    585,         -16.,   -2.7045455,           6.
    586,         -16.,  -2.22727275,           6.
    587,         -14.,  -2.22727275,           6.
    588,         -14.,   -2.7045455,           6.
    589,         -14.,  -3.18181825,           6.
    590,         -14.,    -3.659091,           6.
    591,         -14.,  -4.13636351,           6.
    592,         -14.,  -4.61363649,           6.
    593,         -14.,    -5.090909,           6.
    594,         -14.,  -5.56818199,           6.
    595,         -14.,   -6.0454545,           6.
    596,         -14.,  -6.52272749,           6.
    597,  -2.33333325, -0.916666687,          -2.
    598,  -2.66666675, -0.583333313,          -2.
    599,          -3.,        -0.25,          -2.
    600,  -3.33333325, 0.0833333358,          -2.
    601,  -3.66666675,  0.416666657,          -2.
    602,  -3.66666675,  0.416666657,           2.
    603,  -3.33333325, 0.0833333358,           2.
    604,          -3.,        -0.25,           2.
    605,  -2.66666675, -0.583333313,           2.
    606,  -2.33333325, -0.916666687,           2.
    607,          -2.,        -1.25,          1.5
    608,          -2.,        -1.25,           1.
    609,          -2.,        -1.25,          0.5
    610,          -2.,        -1.25,           0.
    611,          -2.,        -1.25,         -0.5
    612,          -2.,        -1.25,          -1.
    613,          -2.,        -1.25,         -1.5
    614,  -3.66666675,        -1.75,          -2.
    615,  -3.33333325,        -1.75,          -2.
    616,          -3.,        -1.75,          -2.
    617,  -2.66666675,        -1.75,          -2.
    618,  -2.33333325,        -1.75,          -2.
    619,  -2.33333325,        -1.75,           2.
    620,  -2.66666675,        -1.75,           2.
    621,          -3.,        -1.75,           2.
    622,  -3.33333325,        -1.75,           2.
    623,  -3.66666675,        -1.75,           2.
    624,          -2.,        -1.75,         -1.5
    625,          -2.,        -1.75,          -1.
    626,          -2.,        -1.75,         -0.5
    627,          -2.,        -1.75,           0.
    628,          -2.,        -1.75,          0.5
    629,          -2.,        -1.75,           1.
    630,          -2.,        -1.75,          1.5
    631,          -2.,      -1.3125,           2.
    632,          -2.,       -1.375,           2.
    633,          -2.,      -1.4375,           2.
    634,          -2.,         -1.5,           2.
    635,          -2.,      -1.5625,           2.
    636,          -2.,       -1.625,           2.
    637,          -2.,      -1.6875,           2.
    638,          -2.,      -1.6875,          -2.
    639,          -2.,       -1.625,          -2.
    640,          -2.,      -1.5625,          -2.
    641,          -2.,         -1.5,          -2.
    642,          -2.,      -1.4375,          -2.
    643,          -2.,       -1.375,          -2.
    644,          -2.,      -1.3125,          -2.
    645,          -4.,           0.,         -1.5
    646,          -4.,           0.,          -1.
    647,          -4.,           0.,         -0.5
    648,          -4.,           0.,           0.
    649,          -4.,           0.,          0.5
    650,          -4.,           0.,           1.
    651,          -4.,           0.,          1.5
    652,          -4.,         0.25,         -1.5
    653,          -4.,         0.25,          -1.
    654,          -4.,         0.25,         -0.5
    655,          -4.,         0.25,           0.
    656,          -4.,         0.25,          0.5
    657,          -4.,         0.25,           1.
    658,          -4.,         0.25,          1.5
    659,          -4.,          0.5,         -1.5
    660,          -4.,          0.5,          -1.
    661,          -4.,          0.5,         -0.5
    662,          -4.,          0.5,           0.
    663,          -4.,          0.5,          0.5
    664,          -4.,          0.5,           1.
    665,          -4.,          0.5,          1.5
    666,          -6.,           0.,         -1.5
    667,          -6.,           0.,          -1.
    668,          -6.,           0.,         -0.5
    669,          -6.,           0.,           0.
    670,          -6.,           0.,          0.5
    671,          -6.,           0.,           1.
    672,          -6.,           0.,          1.5
    673,          -6.,         0.25,         -1.5
    674,          -6.,         0.25,          -1.
    675,          -6.,         0.25,         -0.5
    676,          -6.,         0.25,           0.
    677,          -6.,         0.25,          0.5
    678,          -6.,         0.25,           1.
    679,          -6.,         0.25,          1.5
    680,          -6.,          0.5,         -1.5
    681,          -6.,          0.5,          -1.
    682,          -6.,          0.5,         -0.5
    683,          -6.,          0.5,           0.
    684,          -6.,          0.5,          0.5
    685,          -6.,          0.5,           1.
    686,          -6.,          0.5,          1.5
    687,  -4.33333349,           0.,          -2.
    688,  -4.33333349,         0.25,          -2.
    689,  -4.33333349,          0.5,          -2.
    690,  -4.66666651,           0.,          -2.
    691,  -4.66666651,         0.25,          -2.
    692,  -4.66666651,          0.5,          -2.
    693,          -5.,           0.,          -2.
    694,          -5.,         0.25,          -2.
    695,          -5.,          0.5,          -2.
    696,  -5.33333349,           0.,          -2.
    697,  -5.33333349,         0.25,          -2.
    698,  -5.33333349,          0.5,          -2.
    699,  -5.66666651,           0.,          -2.
    700,  -5.66666651,         0.25,          -2.
    701,  -5.66666651,          0.5,          -2.
    702,  -4.33333349,           0.,           2.
    703,  -4.33333349,         0.25,           2.
    704,  -4.33333349,          0.5,           2.
    705,  -4.66666651,           0.,           2.
    706,  -4.66666651,         0.25,           2.
    707,  -4.66666651,          0.5,           2.
    708,          -5.,           0.,           2.
    709,          -5.,         0.25,           2.
    710,          -5.,          0.5,           2.
    711,  -5.33333349,           0.,           2.
    712,  -5.33333349,         0.25,           2.
    713,  -5.33333349,          0.5,           2.
    714,  -5.66666651,           0.,           2.
    715,  -5.66666651,         0.25,           2.
    716,  -5.66666651,          0.5,           2.
    717,  -4.33333349,        -0.25,         -1.5
    718,  -4.33333349,        -0.25,          -1.
    719,  -4.33333349,        -0.25,         -0.5
    720,  -4.33333349,        -0.25,           0.
    721,  -4.33333349,        -0.25,          0.5
    722,  -4.33333349,        -0.25,           1.
    723,  -4.33333349,        -0.25,          1.5
    724,  -4.66666651,        -0.25,         -1.5
    725,  -4.66666651,        -0.25,          -1.
    726,  -4.66666651,        -0.25,         -0.5
    727,  -4.66666651,        -0.25,           0.
    728,  -4.66666651,        -0.25,          0.5
    729,  -4.66666651,        -0.25,           1.
    730,  -4.66666651,        -0.25,          1.5
    731,          -5.,        -0.25,         -1.5
    732,          -5.,        -0.25,          -1.
    733,          -5.,        -0.25,         -0.5
    734,          -5.,        -0.25,           0.
    735,          -5.,        -0.25,          0.5
    736,          -5.,        -0.25,           1.
    737,          -5.,        -0.25,          1.5
    738,  -5.33333349,        -0.25,         -1.5
    739,  -5.33333349,        -0.25,          -1.
    740,  -5.33333349,        -0.25,         -0.5
    741,  -5.33333349,        -0.25,           0.
    742,  -5.33333349,        -0.25,          0.5
    743,  -5.33333349,        -0.25,           1.
    744,  -5.33333349,        -0.25,          1.5
    745,  -5.66666651,        -0.25,         -1.5
    746,  -5.66666651,        -0.25,          -1.
    747,  -5.66666651,        -0.25,         -0.5
    748,  -5.66666651,        -0.25,           0.
    749,  -5.66666651,        -0.25,          0.5
    750,  -5.66666651,        -0.25,           1.
    751,  -5.66666651,        -0.25,          1.5
    752,  -4.33333349,         0.75,         -1.5
    753,  -4.33333349,         0.75,          -1.
    754,  -4.33333349,         0.75,         -0.5
    755,  -4.33333349,         0.75,           0.
    756,  -4.33333349,         0.75,          0.5
    757,  -4.33333349,         0.75,           1.
    758,  -4.33333349,         0.75,          1.5
    759,  -4.66666651,         0.75,         -1.5
    760,  -4.66666651,         0.75,          -1.
    761,  -4.66666651,         0.75,         -0.5
    762,  -4.66666651,         0.75,           0.
    763,  -4.66666651,         0.75,          0.5
    764,  -4.66666651,         0.75,           1.
    765,  -4.66666651,         0.75,          1.5
    766,          -5.,         0.75,         -1.5
    767,          -5.,         0.75,          -1.
    768,          -5.,         0.75,         -0.5
    769,          -5.,         0.75,           0.
    770,          -5.,         0.75,          0.5
    771,          -5.,         0.75,           1.
    772,          -5.,         0.75,          1.5
    773,  -5.33333349,         0.75,         -1.5
    774,  -5.33333349,         0.75,          -1.
    775,  -5.33333349,         0.75,         -0.5
    776,  -5.33333349,         0.75,           0.
    777,  -5.33333349,         0.75,          0.5
    778,  -5.33333349,         0.75,           1.
    779,  -5.33333349,         0.75,          1.5
    780,  -5.66666651,         0.75,         -1.5
    781,  -5.66666651,         0.75,          -1.
    782,  -5.66666651,         0.75,         -0.5
    783,  -5.66666651,         0.75,           0.
    784,  -5.66666651,         0.75,          0.5
    785,  -5.66666651,         0.75,           1.
    786,  -5.66666651,         0.75,          1.5
    787,  -4.33333349,        -1.75,         -1.5
    788,  -4.33333349,        -1.75,          -1.
    789,  -4.33333349,        -1.75,         -0.5
    790,  -4.33333349,        -1.75,           0.
    791,  -4.33333349,        -1.75,          0.5
    792,  -4.33333349,        -1.75,           1.
    793,  -4.33333349,        -1.75,          1.5
    794,  -4.66666651,        -1.75,         -1.5
    795,  -4.66666651,        -1.75,          -1.
    796,  -4.66666651,        -1.75,         -0.5
    797,  -4.66666651,        -1.75,           0.
    798,  -4.66666651,        -1.75,          0.5
    799,  -4.66666651,        -1.75,           1.
    800,  -4.66666651,        -1.75,          1.5
    801,          -5.,        -1.75,         -1.5
    802,          -5.,        -1.75,          -1.
    803,          -5.,        -1.75,         -0.5
    804,          -5.,        -1.75,           0.
    805,          -5.,        -1.75,          0.5
    806,          -5.,        -1.75,           1.
    807,          -5.,        -1.75,          1.5
    808,  -5.33333349,        -1.75,         -1.5
    809,  -5.33333349,        -1.75,          -1.
    810,  -5.33333349,        -1.75,         -0.5
    811,  -5.33333349,        -1.75,           0.
    812,  -5.33333349,        -1.75,          0.5
    813,  -5.33333349,        -1.75,           1.
    814,  -5.33333349,        -1.75,          1.5
    815,  -5.66666651,        -1.75,         -1.5
    816,  -5.66666651,        -1.75,          -1.
    817,  -5.66666651,        -1.75,         -0.5
    818,  -5.66666651,        -1.75,           0.
    819,  -5.66666651,        -1.75,          0.5
    820,  -5.66666651,        -1.75,           1.
    821,  -5.66666651,        -1.75,          1.5
    822,  -4.33333349,       -1.375,          -2.
    823,  -4.66666651,       -1.375,          -2.
    824,          -5.,       -1.375,          -2.
    825,  -5.33333349,       -1.375,          -2.
    826,  -5.66666651,       -1.375,          -2.
    827,  -4.33333349,          -1.,          -2.
    828,  -4.66666651,          -1.,          -2.
    829,          -5.,          -1.,          -2.
    830,  -5.33333349,          -1.,          -2.
    831,  -5.66666651,          -1.,          -2.
    832,  -4.33333349,       -0.625,          -2.
    833,  -4.66666651,       -0.625,          -2.
    834,          -5.,       -0.625,          -2.
    835,  -5.33333349,       -0.625,          -2.
    836,  -5.66666651,       -0.625,          -2.
    837,  -4.33333349,       -1.375,           2.
    838,  -4.66666651,       -1.375,           2.
    839,          -5.,       -1.375,           2.
    840,  -5.33333349,       -1.375,           2.
    841,  -5.66666651,       -1.375,           2.
    842,  -4.33333349,          -1.,           2.
    843,  -4.66666651,          -1.,           2.
    844,          -5.,          -1.,           2.
    845,  -5.33333349,          -1.,           2.
    846,  -5.66666651,          -1.,           2.
    847,  -4.33333349,       -0.625,           2.
    848,  -4.66666651,       -0.625,           2.
    849,          -5.,       -0.625,           2.
    850,  -5.33333349,       -0.625,           2.
    851,  -5.66666651,       -0.625,           2.
    852,          -4.,       -1.375,         -1.5
    853,          -4.,       -1.375,          -1.
    854,          -4.,       -1.375,         -0.5
    855,          -4.,       -1.375,           0.
    856,          -4.,       -1.375,          0.5
    857,          -4.,       -1.375,           1.
    858,          -4.,       -1.375,          1.5
    859,          -4.,          -1.,         -1.5
    860,          -4.,          -1.,          -1.
    861,          -4.,          -1.,         -0.5
    862,          -4.,          -1.,           0.
    863,          -4.,          -1.,          0.5
    864,          -4.,          -1.,           1.
    865,          -4.,          -1.,          1.5
    866,          -4.,       -0.625,         -1.5
    867,          -4.,       -0.625,          -1.
    868,          -4.,       -0.625,         -0.5
    869,          -4.,       -0.625,           0.
    870,          -4.,       -0.625,          0.5
    871,          -4.,       -0.625,           1.
    872,          -4.,       -0.625,          1.5
    873,          -6.,       -1.375,         -1.5
    874,          -6.,       -1.375,          -1.
    875,          -6.,       -1.375,         -0.5
    876,          -6.,       -1.375,           0.
    877,          -6.,       -1.375,          0.5
    878,          -6.,       -1.375,           1.
    879,          -6.,       -1.375,          1.5
    880,          -6.,          -1.,         -1.5
    881,          -6.,          -1.,          -1.
    882,          -6.,          -1.,         -0.5
    883,          -6.,          -1.,           0.
    884,          -6.,          -1.,          0.5
    885,          -6.,          -1.,           1.
    886,          -6.,          -1.,          1.5
    887,          -6.,       -0.625,         -1.5
    888,          -6.,       -0.625,          -1.
    889,          -6.,       -0.625,         -0.5
    890,          -6.,       -0.625,           0.
    891,          -6.,       -0.625,          0.5
    892,          -6.,       -0.625,           1.
    893,          -6.,       -0.625,          1.5
    894,         -6.5,        -0.25,         -1.5
    895,          -7.,        -0.25,         -1.5
    896,         -7.5,        -0.25,         -1.5
    897,          -8.,        -0.25,         -1.5
    898,         -8.5,        -0.25,         -1.5
    899,          -9.,        -0.25,         -1.5
    900,         -9.5,        -0.25,         -1.5
    901,         -10.,        -0.25,         -1.5
    902,        -10.5,        -0.25,         -1.5
    903,         -11.,        -0.25,         -1.5
    904,        -11.5,        -0.25,         -1.5
    905,         -12.,        -0.25,         -1.5
    906,        -12.5,        -0.25,         -1.5
    907,         -13.,        -0.25,         -1.5
    908,        -13.5,        -0.25,         -1.5
    909,         -6.5,        -0.25,          -1.
    910,          -7.,        -0.25,          -1.
    911,         -7.5,        -0.25,          -1.
    912,          -8.,        -0.25,          -1.
    913,         -8.5,        -0.25,          -1.
    914,          -9.,        -0.25,          -1.
    915,         -9.5,        -0.25,          -1.
    916,         -10.,        -0.25,          -1.
    917,        -10.5,        -0.25,          -1.
    918,         -11.,        -0.25,          -1.
    919,        -11.5,        -0.25,          -1.
    920,         -12.,        -0.25,          -1.
    921,        -12.5,        -0.25,          -1.
    922,         -13.,        -0.25,          -1.
    923,        -13.5,        -0.25,          -1.
    924,         -6.5,        -0.25,         -0.5
    925,          -7.,        -0.25,         -0.5
    926,         -7.5,        -0.25,         -0.5
    927,          -8.,        -0.25,         -0.5
    928,         -8.5,        -0.25,         -0.5
    929,          -9.,        -0.25,         -0.5
    930,         -9.5,        -0.25,         -0.5
    931,         -10.,        -0.25,         -0.5
    932,        -10.5,        -0.25,         -0.5
    933,         -11.,        -0.25,         -0.5
    934,        -11.5,        -0.25,         -0.5
    935,         -12.,        -0.25,         -0.5
    936,        -12.5,        -0.25,         -0.5
    937,         -13.,        -0.25,         -0.5
    938,        -13.5,        -0.25,         -0.5
    939,         -6.5,        -0.25,           0.
    940,          -7.,        -0.25,           0.
    941,         -7.5,        -0.25,           0.
    942,          -8.,        -0.25,           0.
    943,         -8.5,        -0.25,           0.
    944,          -9.,        -0.25,           0.
    945,         -9.5,        -0.25,           0.
    946,         -10.,        -0.25,           0.
    947,        -10.5,        -0.25,           0.
    948,         -11.,        -0.25,           0.
    949,        -11.5,        -0.25,           0.
    950,         -12.,        -0.25,           0.
    951,        -12.5,        -0.25,           0.
    952,         -13.,        -0.25,           0.
    953,        -13.5,        -0.25,           0.
    954,         -6.5,        -0.25,          0.5
    955,          -7.,        -0.25,          0.5
    956,         -7.5,        -0.25,          0.5
    957,          -8.,        -0.25,          0.5
    958,         -8.5,        -0.25,          0.5
    959,          -9.,        -0.25,          0.5
    960,         -9.5,        -0.25,          0.5
    961,         -10.,        -0.25,          0.5
    962,        -10.5,        -0.25,          0.5
    963,         -11.,        -0.25,          0.5
    964,        -11.5,        -0.25,          0.5
    965,         -12.,        -0.25,          0.5
    966,        -12.5,        -0.25,          0.5
    967,         -13.,        -0.25,          0.5
    968,        -13.5,        -0.25,          0.5
    969,         -6.5,        -0.25,           1.
    970,          -7.,        -0.25,           1.
    971,         -7.5,        -0.25,           1.
    972,          -8.,        -0.25,           1.
    973,         -8.5,        -0.25,           1.
    974,          -9.,        -0.25,           1.
    975,         -9.5,        -0.25,           1.
    976,         -10.,        -0.25,           1.
    977,        -10.5,        -0.25,           1.
    978,         -11.,        -0.25,           1.
    979,        -11.5,        -0.25,           1.
    980,         -12.,        -0.25,           1.
    981,        -12.5,        -0.25,           1.
    982,         -13.,        -0.25,           1.
    983,        -13.5,        -0.25,           1.
    984,         -6.5,        -0.25,          1.5
    985,          -7.,        -0.25,          1.5
    986,         -7.5,        -0.25,          1.5
    987,          -8.,        -0.25,          1.5
    988,         -8.5,        -0.25,          1.5
    989,          -9.,        -0.25,          1.5
    990,         -9.5,        -0.25,          1.5
    991,         -10.,        -0.25,          1.5
    992,        -10.5,        -0.25,          1.5
    993,         -11.,        -0.25,          1.5
    994,        -11.5,        -0.25,          1.5
    995,         -12.,        -0.25,          1.5
    996,        -12.5,        -0.25,          1.5
    997,         -13.,        -0.25,          1.5
    998,        -13.5,        -0.25,          1.5
    999,         -6.5,        -1.75,         -1.5
   1000,          -7.,        -1.75,         -1.5
   1001,         -7.5,        -1.75,         -1.5
   1002,          -8.,        -1.75,         -1.5
   1003,         -8.5,        -1.75,         -1.5
   1004,          -9.,        -1.75,         -1.5
   1005,         -9.5,        -1.75,         -1.5
   1006,         -10.,        -1.75,         -1.5
   1007,        -10.5,        -1.75,         -1.5
   1008,         -11.,        -1.75,         -1.5
   1009,        -11.5,        -1.75,         -1.5
   1010,         -12.,        -1.75,         -1.5
   1011,        -12.5,        -1.75,         -1.5
   1012,         -13.,        -1.75,         -1.5
   1013,        -13.5,        -1.75,         -1.5
   1014,         -6.5,        -1.75,          -1.
   1015,          -7.,        -1.75,          -1.
   1016,         -7.5,        -1.75,          -1.
   1017,          -8.,        -1.75,          -1.
   1018,         -8.5,        -1.75,          -1.
   1019,          -9.,        -1.75,          -1.
   1020,         -9.5,        -1.75,          -1.
   1021,         -10.,        -1.75,          -1.
   1022,        -10.5,        -1.75,          -1.
   1023,         -11.,        -1.75,          -1.
   1024,        -11.5,        -1.75,          -1.
   1025,         -12.,        -1.75,          -1.
   1026,        -12.5,        -1.75,          -1.
   1027,         -13.,        -1.75,          -1.
   1028,        -13.5,        -1.75,          -1.
   1029,         -6.5,        -1.75,         -0.5
   1030,          -7.,        -1.75,         -0.5
   1031,         -7.5,        -1.75,         -0.5
   1032,          -8.,        -1.75,         -0.5
   1033,         -8.5,        -1.75,         -0.5
   1034,          -9.,        -1.75,         -0.5
   1035,         -9.5,        -1.75,         -0.5
   1036,         -10.,        -1.75,         -0.5
   1037,        -10.5,        -1.75,         -0.5
   1038,         -11.,        -1.75,         -0.5
   1039,        -11.5,        -1.75,         -0.5
   1040,         -12.,        -1.75,         -0.5
   1041,        -12.5,        -1.75,         -0.5
   1042,         -13.,        -1.75,         -0.5
   1043,        -13.5,        -1.75,         -0.5
   1044,         -6.5,        -1.75,           0.
   1045,          -7.,        -1.75,           0.
   1046,         -7.5,        -1.75,           0.
   1047,          -8.,        -1.75,           0.
   1048,         -8.5,        -1.75,           0.
   1049,          -9.,        -1.75,           0.
   1050,         -9.5,        -1.75,           0.
   1051,         -10.,        -1.75,           0.
   1052,        -10.5,        -1.75,           0.
   1053,         -11.,        -1.75,           0.
   1054,        -11.5,        -1.75,           0.
   1055,         -12.,        -1.75,           0.
   1056,        -12.5,        -1.75,           0.
   1057,         -13.,        -1.75,           0.
   1058,        -13.5,        -1.75,           0.
   1059,         -6.5,        -1.75,          0.5
   1060,          -7.,        -1.75,          0.5
   1061,         -7.5,        -1.75,          0.5
   1062,          -8.,        -1.75,          0.5
   1063,         -8.5,        -1.75,          0.5
   1064,          -9.,        -1.75,          0.5
   1065,         -9.5,        -1.75,          0.5
   1066,         -10.,        -1.75,          0.5
   1067,        -10.5,        -1.75,          0.5
   1068,         -11.,        -1.75,          0.5
   1069,        -11.5,        -1.75,          0.5
   1070,         -12.,        -1.75,          0.5
   1071,        -12.5,        -1.75,          0.5
   1072,         -13.,        -1.75,          0.5
   1073,        -13.5,        -1.75,          0.5
   1074,         -6.5,        -1.75,           1.
   1075,          -7.,        -1.75,           1.
   1076,         -7.5,        -1.75,           1.
   1077,          -8.,        -1.75,           1.
   1078,         -8.5,        -1.75,           1.
   1079,          -9.,        -1.75,           1.
   1080,         -9.5,        -1.75,           1.
   1081,         -10.,        -1.75,           1.
   1082,        -10.5,        -1.75,           1.
   1083,         -11.,        -1.75,           1.
   1084,        -11.5,        -1.75,           1.
   1085,         -12.,        -1.75,           1.
   1086,        -12.5,        -1.75,           1.
   1087,         -13.,        -1.75,           1.
   1088,        -13.5,        -1.75,           1.
   1089,         -6.5,        -1.75,          1.5
   1090,          -7.,        -1.75,          1.5
   1091,         -7.5,        -1.75,          1.5
   1092,          -8.,        -1.75,          1.5
   1093,         -8.5,        -1.75,          1.5
   1094,          -9.,        -1.75,          1.5
   1095,         -9.5,        -1.75,          1.5
   1096,         -10.,        -1.75,          1.5
   1097,        -10.5,        -1.75,          1.5
   1098,         -11.,        -1.75,          1.5
   1099,        -11.5,        -1.75,          1.5
   1100,         -12.,        -1.75,          1.5
   1101,        -12.5,        -1.75,          1.5
   1102,         -13.,        -1.75,          1.5
   1103,        -13.5,        -1.75,          1.5
   1104,         -14.,       -0.625,         -1.5
   1105,         -14.,       -0.625,          -1.
   1106,         -14.,       -0.625,         -0.5
   1107,         -14.,       -0.625,           0.
   1108,         -14.,       -0.625,          0.5
   1109,         -14.,       -0.625,           1.
   1110,         -14.,       -0.625,          1.5
   1111,         -14.,          -1.,         -1.5
   1112,         -14.,          -1.,          -1.
   1113,         -14.,          -1.,         -0.5
   1114,         -14.,          -1.,           0.
   1115,         -14.,          -1.,          0.5
   1116,         -14.,          -1.,           1.
   1117,         -14.,          -1.,          1.5
   1118,         -14.,       -1.375,         -1.5
   1119,         -14.,       -1.375,          -1.
   1120,         -14.,       -1.375,         -0.5
   1121,         -14.,       -1.375,           0.
   1122,         -14.,       -1.375,          0.5
   1123,         -14.,       -1.375,           1.
   1124,         -14.,       -1.375,          1.5
   1125,         -6.5,       -0.625,          -2.
   1126,          -7.,       -0.625,          -2.
   1127,         -7.5,       -0.625,          -2.
   1128,          -8.,       -0.625,          -2.
   1129,         -8.5,       -0.625,          -2.
   1130,          -9.,       -0.625,          -2.
   1131,         -9.5,       -0.625,          -2.
   1132,         -10.,       -0.625,          -2.
   1133,        -10.5,       -0.625,          -2.
   1134,         -11.,       -0.625,          -2.
   1135,        -11.5,       -0.625,          -2.
   1136,         -12.,       -0.625,          -2.
   1137,        -12.5,       -0.625,          -2.
   1138,         -13.,       -0.625,          -2.
   1139,        -13.5,       -0.625,          -2.
   1140,         -6.5,          -1.,          -2.
   1141,          -7.,          -1.,          -2.
   1142,         -7.5,          -1.,          -2.
   1143,          -8.,          -1.,          -2.
   1144,         -8.5,          -1.,          -2.
   1145,          -9.,          -1.,          -2.
   1146,         -9.5,          -1.,          -2.
   1147,         -10.,          -1.,          -2.
   1148,        -10.5,          -1.,          -2.
   1149,         -11.,          -1.,          -2.
   1150,        -11.5,          -1.,          -2.
   1151,         -12.,          -1.,          -2.
   1152,        -12.5,          -1.,          -2.
   1153,         -13.,          -1.,          -2.
   1154,        -13.5,          -1.,          -2.
   1155,         -6.5,       -1.375,          -2.
   1156,          -7.,       -1.375,          -2.
   1157,         -7.5,       -1.375,          -2.
   1158,          -8.,       -1.375,          -2.
   1159,         -8.5,       -1.375,          -2.
   1160,          -9.,       -1.375,          -2.
   1161,         -9.5,       -1.375,          -2.
   1162,         -10.,       -1.375,          -2.
   1163,        -10.5,       -1.375,          -2.
   1164,         -11.,       -1.375,          -2.
   1165,        -11.5,       -1.375,          -2.
   1166,         -12.,       -1.375,          -2.
   1167,        -12.5,       -1.375,          -2.
   1168,         -13.,       -1.375,          -2.
   1169,        -13.5,       -1.375,          -2.
   1170,         -6.5,       -0.625,           2.
   1171,          -7.,       -0.625,           2.
   1172,         -7.5,       -0.625,           2.
   1173,          -8.,       -0.625,           2.
   1174,         -8.5,       -0.625,           2.
   1175,          -9.,       -0.625,           2.
   1176,         -9.5,       -0.625,           2.
   1177,         -10.,       -0.625,           2.
   1178,        -10.5,       -0.625,           2.
   1179,         -11.,       -0.625,           2.
   1180,        -11.5,       -0.625,           2.
   1181,         -12.,       -0.625,           2.
   1182,        -12.5,       -0.625,           2.
   1183,         -13.,       -0.625,           2.
   1184,        -13.5,       -0.625,           2.
   1185,         -6.5,          -1.,           2.
   1186,          -7.,          -1.,           2.
   1187,         -7.5,          -1.,           2.
   1188,          -8.,          -1.,           2.
   1189,         -8.5,          -1.,           2.
   1190,          -9.,          -1.,           2.
   1191,         -9.5,          -1.,           2.
   1192,         -10.,          -1.,           2.
   1193,        -10.5,          -1.,           2.
   1194,         -11.,          -1.,           2.
   1195,        -11.5,          -1.,           2.
   1196,         -12.,          -1.,           2.
   1197,        -12.5,          -1.,           2.
   1198,         -13.,          -1.,           2.
   1199,        -13.5,          -1.,           2.
   1200,         -6.5,       -1.375,           2.
   1201,          -7.,       -1.375,           2.
   1202,         -7.5,       -1.375,           2.
   1203,          -8.,       -1.375,           2.
   1204,         -8.5,       -1.375,           2.
   1205,          -9.,       -1.375,           2.
   1206,         -9.5,       -1.375,           2.
   1207,         -10.,       -1.375,           2.
   1208,        -10.5,       -1.375,           2.
   1209,         -11.,       -1.375,           2.
   1210,        -11.5,       -1.375,           2.
   1211,         -12.,       -1.375,           2.
   1212,        -12.5,       -1.375,           2.
   1213,         -13.,       -1.375,           2.
   1214,        -13.5,       -1.375,           2.
   1215,         -16.,  0.275000006,          2.5
   1216,         -16.,  0.275000006,           3.
   1217,         -16.,  0.275000006,          3.5
   1218,         -16.,  0.275000006,           4.
   1219,         -16.,  0.275000006,          4.5
   1220,         -16.,  0.275000006,           5.
   1221,         -16.,  0.275000006,          5.5
   1222,         -16.,  0.800000012,          2.5
   1223,         -16.,  0.800000012,           3.
   1224,         -16.,  0.800000012,          3.5
   1225,         -16.,  0.800000012,           4.
   1226,         -16.,  0.800000012,          4.5
   1227,         -16.,  0.800000012,           5.
   1228,         -16.,  0.800000012,          5.5
   1229,         -16.,   1.32500005,          2.5
   1230,         -16.,   1.32500005,           3.
   1231,         -16.,   1.32500005,          3.5
   1232,         -16.,   1.32500005,           4.
   1233,         -16.,   1.32500005,          4.5
   1234,         -16.,   1.32500005,           5.
   1235,         -16.,   1.32500005,          5.5
   1236,         -16.,   1.85000002,          2.5
   1237,         -16.,   1.85000002,           3.
   1238,         -16.,   1.85000002,          3.5
   1239,         -16.,   1.85000002,           4.
   1240,         -16.,   1.85000002,          4.5
   1241,         -16.,   1.85000002,           5.
   1242,         -16.,   1.85000002,          5.5
   1243,         -16.,        2.375,          2.5
   1244,         -16.,        2.375,           3.
   1245,         -16.,        2.375,          3.5
   1246,         -16.,        2.375,           4.
   1247,         -16.,        2.375,          4.5
   1248,         -16.,        2.375,           5.
   1249,         -16.,        2.375,          5.5
   1250,         -16.,    2.9000001,          2.5
   1251,         -16.,    2.9000001,           3.
   1252,         -16.,    2.9000001,          3.5
   1253,         -16.,    2.9000001,           4.
   1254,         -16.,    2.9000001,          4.5
   1255,         -16.,    2.9000001,           5.
   1256,         -16.,    2.9000001,          5.5
   1257,         -16.,   3.42499995,          2.5
   1258,         -16.,   3.42499995,           3.
   1259,         -16.,   3.42499995,          3.5
   1260,         -16.,   3.42499995,           4.
   1261,         -16.,   3.42499995,          4.5
   1262,         -16.,   3.42499995,           5.
   1263,         -16.,   3.42499995,          5.5
   1264,         -16.,   3.95000005,          2.5
   1265,         -16.,   3.95000005,           3.
   1266,         -16.,   3.95000005,          3.5
   1267,         -16.,   3.95000005,           4.
   1268,         -16.,   3.95000005,          4.5
   1269,         -16.,   3.95000005,           5.
   1270,         -16.,   3.95000005,          5.5
   1271,         -16.,    4.4749999,          2.5
   1272,         -16.,    4.4749999,           3.
   1273,         -16.,    4.4749999,          3.5
   1274,         -16.,    4.4749999,           4.
   1275,         -16.,    4.4749999,          4.5
   1276,         -16.,    4.4749999,           5.
   1277,         -16.,    4.4749999,          5.5
   1278,         -14.,  0.275000006,          2.5
   1279,         -14.,  0.275000006,           3.
   1280,         -14.,  0.275000006,          3.5
   1281,         -14.,  0.275000006,           4.
   1282,         -14.,  0.275000006,          4.5
   1283,         -14.,  0.275000006,           5.
   1284,         -14.,  0.275000006,          5.5
   1285,         -14.,  0.800000012,          2.5
   1286,         -14.,  0.800000012,           3.
   1287,         -14.,  0.800000012,          3.5
   1288,         -14.,  0.800000012,           4.
   1289,         -14.,  0.800000012,          4.5
   1290,         -14.,  0.800000012,           5.
   1291,         -14.,  0.800000012,          5.5
   1292,         -14.,   1.32500005,          2.5
   1293,         -14.,   1.32500005,           3.
   1294,         -14.,   1.32500005,          3.5
   1295,         -14.,   1.32500005,           4.
   1296,         -14.,   1.32500005,          4.5
   1297,         -14.,   1.32500005,           5.
   1298,         -14.,   1.32500005,          5.5
   1299,         -14.,   1.85000002,          2.5
   1300,         -14.,   1.85000002,           3.
   1301,         -14.,   1.85000002,          3.5
   1302,         -14.,   1.85000002,           4.
   1303,         -14.,   1.85000002,          4.5
   1304,         -14.,   1.85000002,           5.
   1305,         -14.,   1.85000002,          5.5
   1306,         -14.,        2.375,          2.5
   1307,         -14.,        2.375,           3.
   1308,         -14.,        2.375,          3.5
   1309,         -14.,        2.375,           4.
   1310,         -14.,        2.375,          4.5
   1311,         -14.,        2.375,           5.
   1312,         -14.,        2.375,          5.5
   1313,         -14.,    2.9000001,          2.5
   1314,         -14.,    2.9000001,           3.
   1315,         -14.,    2.9000001,          3.5
   1316,         -14.,    2.9000001,           4.
   1317,         -14.,    2.9000001,          4.5
   1318,         -14.,    2.9000001,           5.
   1319,         -14.,    2.9000001,          5.5
   1320,         -14.,   3.42499995,          2.5
   1321,         -14.,   3.42499995,           3.
   1322,         -14.,   3.42499995,          3.5
   1323,         -14.,   3.42499995,           4.
   1324,         -14.,   3.42499995,          4.5
   1325,         -14.,   3.42499995,           5.
   1326,         -14.,   3.42499995,          5.5
   1327,         -14.,   3.95000005,          2.5
   1328,         -14.,   3.95000005,           3.
   1329,         -14.,   3.95000005,          3.5
   1330,         -14.,   3.95000005,           4.
   1331,         -14.,   3.95000005,          4.5
   1332,         -14.,   3.95000005,           5.
   1333,         -14.,   3.95000005,          5.5
   1334,         -14.,    4.4749999,          2.5
   1335,         -14.,    4.4749999,           3.
   1336,         -14.,    4.4749999,          3.5
   1337,         -14.,    4.4749999,           4.
   1338,         -14.,    4.4749999,          4.5
   1339,         -14.,    4.4749999,           5.
   1340,         -14.,    4.4749999,          5.5
   1341,        -15.5,  0.275000006,           2.
   1342,        -15.5,  0.800000012,           2.
   1343,        -15.5,   1.32500005,           2.
   1344,        -15.5,   1.85000002,           2.
   1345,        -15.5,        2.375,           2.
   1346,        -15.5,    2.9000001,           2.
   1347,        -15.5,   3.42499995,           2.
   1348,        -15.5,   3.95000005,           2.
   1349,        -15.5,    4.4749999,           2.
   1350,         -15.,  0.275000006,           2.
   1351,         -15.,  0.800000012,           2.
   1352,         -15.,   1.32500005,           2.
   1353,         -15.,   1.85000002,           2.
   1354,         -15.,        2.375,           2.
   1355,         -15.,    2.9000001,           2.
   1356,         -15.,   3.42499995,           2.
   1357,         -15.,   3.95000005,           2.
   1358,         -15.,    4.4749999,           2.
   1359,        -14.5,  0.275000006,           2.
   1360,        -14.5,  0.800000012,           2.
   1361,        -14.5,   1.32500005,           2.
   1362,        -14.5,   1.85000002,           2.
   1363,        -14.5,        2.375,           2.
   1364,        -14.5,    2.9000001,           2.
   1365,        -14.5,   3.42499995,           2.
   1366,        -14.5,   3.95000005,           2.
   1367,        -14.5,    4.4749999,           2.
   1368,        -15.5,  0.275000006,           6.
   1369,        -15.5,  0.800000012,           6.
   1370,        -15.5,   1.32500005,           6.
   1371,        -15.5,   1.85000002,           6.
   1372,        -15.5,        2.375,           6.
   1373,        -15.5,    2.9000001,           6.
   1374,        -15.5,   3.42499995,           6.
   1375,        -15.5,   3.95000005,           6.
   1376,        -15.5,    4.4749999,           6.
   1377,         -15.,  0.275000006,           6.
   1378,         -15.,  0.800000012,           6.
   1379,         -15.,   1.32500005,           6.
   1380,         -15.,   1.85000002,           6.
   1381,         -15.,        2.375,           6.
   1382,         -15.,    2.9000001,           6.
   1383,         -15.,   3.42499995,           6.
   1384,         -15.,   3.95000005,           6.
   1385,         -15.,    4.4749999,           6.
   1386,        -14.5,  0.275000006,           6.
   1387,        -14.5,  0.800000012,           6.
   1388,        -14.5,   1.32500005,           6.
   1389,        -14.5,   1.85000002,           6.
   1390,        -14.5,        2.375,           6.
   1391,        -14.5,    2.9000001,           6.
   1392,        -14.5,   3.42499995,           6.
   1393,        -14.5,   3.95000005,           6.
   1394,        -14.5,    4.4749999,           6.
   1395,        -15.5,        -0.25,          2.5
   1396,        -15.5,        -0.25,           3.
   1397,        -15.5,        -0.25,          3.5
   1398,        -15.5,        -0.25,           4.
   1399,        -15.5,        -0.25,          4.5
   1400,        -15.5,        -0.25,           5.
   1401,        -15.5,        -0.25,          5.5
   1402,         -15.,        -0.25,          2.5
   1403,         -15.,        -0.25,           3.
   1404,         -15.,        -0.25,          3.5
   1405,         -15.,        -0.25,           4.
   1406,         -15.,        -0.25,          4.5
   1407,         -15.,        -0.25,           5.
   1408,         -15.,        -0.25,          5.5
   1409,        -14.5,        -0.25,          2.5
   1410,        -14.5,        -0.25,           3.
   1411,        -14.5,        -0.25,          3.5
   1412,        -14.5,        -0.25,           4.
   1413,        -14.5,        -0.25,          4.5
   1414,        -14.5,        -0.25,           5.
   1415,        -14.5,        -0.25,          5.5
   1416,        -15.5,           5.,          2.5
   1417,        -15.5,           5.,           3.
   1418,        -15.5,           5.,          3.5
   1419,        -15.5,           5.,           4.
   1420,        -15.5,           5.,          4.5
   1421,        -15.5,           5.,           5.
   1422,        -15.5,           5.,          5.5
   1423,         -15.,           5.,          2.5
   1424,         -15.,           5.,           3.
   1425,         -15.,           5.,          3.5
   1426,         -15.,           5.,           4.
   1427,         -15.,           5.,          4.5
   1428,         -15.,           5.,           5.
   1429,         -15.,           5.,          5.5
   1430,        -14.5,           5.,          2.5
   1431,        -14.5,           5.,           3.
   1432,        -14.5,           5.,          3.5
   1433,        -14.5,           5.,           4.
   1434,        -14.5,           5.,          4.5
   1435,        -14.5,           5.,           5.
   1436,        -14.5,           5.,          5.5
   1437,        -14.5,        -1.75,          2.5
   1438,         -15.,        -1.75,          2.5
   1439,        -15.5,        -1.75,          2.5
   1440,        -14.5,        -1.75,           3.
   1441,         -15.,        -1.75,           3.
   1442,        -15.5,        -1.75,           3.
   1443,        -14.5,        -1.75,          3.5
   1444,         -15.,        -1.75,          3.5
   1445,        -15.5,        -1.75,          3.5
   1446,        -14.5,        -1.75,           4.
   1447,         -15.,        -1.75,           4.
   1448,        -15.5,        -1.75,           4.
   1449,        -14.5,        -1.75,          4.5
   1450,         -15.,        -1.75,          4.5
   1451,        -15.5,        -1.75,          4.5
   1452,        -14.5,        -1.75,           5.
   1453,         -15.,        -1.75,           5.
   1454,        -15.5,        -1.75,           5.
   1455,        -14.5,        -1.75,          5.5
   1456,         -15.,        -1.75,          5.5
   1457,        -15.5,        -1.75,          5.5
   1458,         -14.,       -0.625,          2.5
   1459,         -14.,       -0.625,           3.
   1460,         -14.,       -0.625,          3.5
   1461,         -14.,       -0.625,           4.
   1462,         -14.,       -0.625,          4.5
   1463,         -14.,       -0.625,           5.
   1464,         -14.,       -0.625,          5.5
   1465,         -14.,          -1.,          2.5
   1466,         -14.,          -1.,           3.
   1467,         -14.,          -1.,          3.5
   1468,         -14.,          -1.,           4.
   1469,         -14.,          -1.,          4.5
   1470,         -14.,          -1.,           5.
   1471,         -14.,          -1.,          5.5
   1472,         -14.,       -1.375,          2.5
   1473,         -14.,       -1.375,           3.
   1474,         -14.,       -1.375,          3.5
   1475,         -14.,       -1.375,           4.
   1476,         -14.,       -1.375,          4.5
   1477,         -14.,       -1.375,           5.
   1478,         -14.,       -1.375,          5.5
   1479,         -16.,       -0.625,          2.5
   1480,         -16.,       -0.625,           3.
   1481,         -16.,       -0.625,          3.5
   1482,         -16.,       -0.625,           4.
   1483,         -16.,       -0.625,          4.5
   1484,         -16.,       -0.625,           5.
   1485,         -16.,       -0.625,          5.5
   1486,         -16.,          -1.,          2.5
   1487,         -16.,          -1.,           3.
   1488,         -16.,          -1.,          3.5
   1489,         -16.,          -1.,           4.
   1490,         -16.,          -1.,          4.5
   1491,         -16.,          -1.,           5.
   1492,         -16.,          -1.,          5.5
   1493,         -16.,       -1.375,          2.5
   1494,         -16.,       -1.375,           3.
   1495,         -16.,       -1.375,          3.5
   1496,         -16.,       -1.375,           4.
   1497,         -16.,       -1.375,          4.5
   1498,         -16.,       -1.375,           5.
   1499,         -16.,       -1.375,          5.5
   1500,        -14.5,       -0.625,           2.
   1501,         -15.,       -0.625,           2.
   1502,        -15.5,       -0.625,           2.
   1503,        -14.5,          -1.,           2.
   1504,         -15.,          -1.,           2.
   1505,        -15.5,          -1.,           2.
   1506,        -14.5,       -1.375,           2.
   1507,         -15.,       -1.375,           2.
   1508,        -15.5,       -1.375,           2.
   1509,        -14.5,       -0.625,           6.
   1510,         -15.,       -0.625,           6.
   1511,        -15.5,       -0.625,           6.
   1512,        -14.5,          -1.,           6.
   1513,         -15.,          -1.,           6.
   1514,        -15.5,          -1.,           6.
   1515,        -14.5,       -1.375,           6.
   1516,         -15.,       -1.375,           6.
   1517,        -15.5,       -1.375,           6.
   1518,         -16.,       -1.375,         -1.5
   1519,         -16.,       -1.375,          -1.
   1520,         -16.,       -1.375,         -0.5
   1521,         -16.,       -1.375,           0.
   1522,         -16.,       -1.375,          0.5
   1523,         -16.,       -1.375,           1.
   1524,         -16.,       -1.375,          1.5
   1525,         -16.,          -1.,         -1.5
   1526,         -16.,          -1.,          -1.
   1527,         -16.,          -1.,         -0.5
   1528,         -16.,          -1.,           0.
   1529,         -16.,          -1.,          0.5
   1530,         -16.,          -1.,           1.
   1531,         -16.,          -1.,          1.5
   1532,         -16.,       -0.625,         -1.5
   1533,         -16.,       -0.625,          -1.
   1534,         -16.,       -0.625,         -0.5
   1535,         -16.,       -0.625,           0.
   1536,         -16.,       -0.625,          0.5
   1537,         -16.,       -0.625,           1.
   1538,         -16.,       -0.625,          1.5
   1539,        -15.5,       -1.375,          -2.
   1540,        -15.5,          -1.,          -2.
   1541,        -15.5,       -0.625,          -2.
   1542,         -15.,       -1.375,          -2.
   1543,         -15.,          -1.,          -2.
   1544,         -15.,       -0.625,          -2.
   1545,        -14.5,       -1.375,          -2.
   1546,        -14.5,          -1.,          -2.
   1547,        -14.5,       -0.625,          -2.
   1548,        -15.5,        -1.75,         -1.5
   1549,        -15.5,        -1.75,          -1.
   1550,        -15.5,        -1.75,         -0.5
   1551,        -15.5,        -1.75,           0.
   1552,        -15.5,        -1.75,          0.5
   1553,        -15.5,        -1.75,           1.
   1554,        -15.5,        -1.75,          1.5
   1555,         -15.,        -1.75,         -1.5
   1556,         -15.,        -1.75,          -1.
   1557,         -15.,        -1.75,         -0.5
   1558,         -15.,        -1.75,           0.
   1559,         -15.,        -1.75,          0.5
   1560,         -15.,        -1.75,           1.
   1561,         -15.,        -1.75,          1.5
   1562,        -14.5,        -1.75,         -1.5
   1563,        -14.5,        -1.75,          -1.
   1564,        -14.5,        -1.75,         -0.5
   1565,        -14.5,        -1.75,           0.
   1566,        -14.5,        -1.75,          0.5
   1567,        -14.5,        -1.75,           1.
   1568,        -14.5,        -1.75,          1.5
   1569,        -15.5,        -0.25,         -1.5
   1570,        -15.5,        -0.25,          -1.
   1571,        -15.5,        -0.25,         -0.5
   1572,        -15.5,        -0.25,           0.
   1573,        -15.5,        -0.25,          0.5
   1574,        -15.5,        -0.25,           1.
   1575,        -15.5,        -0.25,          1.5
   1576,         -15.,        -0.25,         -1.5
   1577,         -15.,        -0.25,          -1.
   1578,         -15.,        -0.25,         -0.5
   1579,         -15.,        -0.25,           0.
   1580,         -15.,        -0.25,          0.5
   1581,         -15.,        -0.25,           1.
   1582,         -15.,        -0.25,          1.5
   1583,        -14.5,        -0.25,         -1.5
   1584,        -14.5,        -0.25,          -1.
   1585,        -14.5,        -0.25,         -0.5
   1586,        -14.5,        -0.25,           0.
   1587,        -14.5,        -0.25,          0.5
   1588,        -14.5,        -0.25,           1.
   1589,        -14.5,        -0.25,          1.5
   1590,         -16.,       -1.375,         -5.5
   1591,         -16.,       -1.375,          -5.
   1592,         -16.,       -1.375,         -4.5
   1593,         -16.,       -1.375,          -4.
   1594,         -16.,       -1.375,         -3.5
   1595,         -16.,       -1.375,          -3.
   1596,         -16.,       -1.375,         -2.5
   1597,         -16.,          -1.,         -5.5
   1598,         -16.,          -1.,          -5.
   1599,         -16.,          -1.,         -4.5
   1600,         -16.,          -1.,          -4.
   1601,         -16.,          -1.,         -3.5
   1602,         -16.,          -1.,          -3.
   1603,         -16.,          -1.,         -2.5
   1604,         -16.,       -0.625,         -5.5
   1605,         -16.,       -0.625,          -5.
   1606,         -16.,       -0.625,         -4.5
   1607,         -16.,       -0.625,          -4.
   1608,         -16.,       -0.625,         -3.5
   1609,         -16.,       -0.625,          -3.
   1610,         -16.,       -0.625,         -2.5
   1611,         -14.,       -1.375,         -5.5
   1612,         -14.,       -1.375,          -5.
   1613,         -14.,       -1.375,         -4.5
   1614,         -14.,       -1.375,          -4.
   1615,         -14.,       -1.375,         -3.5
   1616,         -14.,       -1.375,          -3.
   1617,         -14.,       -1.375,         -2.5
   1618,         -14.,          -1.,         -5.5
   1619,         -14.,          -1.,          -5.
   1620,         -14.,          -1.,         -4.5
   1621,         -14.,          -1.,          -4.
   1622,         -14.,          -1.,         -3.5
   1623,         -14.,          -1.,          -3.
   1624,         -14.,          -1.,         -2.5
   1625,         -14.,       -0.625,         -5.5
   1626,         -14.,       -0.625,          -5.
   1627,         -14.,       -0.625,         -4.5
   1628,         -14.,       -0.625,          -4.
   1629,         -14.,       -0.625,         -3.5
   1630,         -14.,       -0.625,          -3.
   1631,         -14.,       -0.625,         -2.5
   1632,        -15.5,       -1.375,          -6.
   1633,        -15.5,          -1.,          -6.
   1634,        -15.5,       -0.625,          -6.
   1635,         -15.,       -1.375,          -6.
   1636,         -15.,          -1.,          -6.
   1637,         -15.,       -0.625,          -6.
   1638,        -14.5,       -1.375,          -6.
   1639,        -14.5,          -1.,          -6.
   1640,        -14.5,       -0.625,          -6.
   1641,        -15.5,        -1.75,         -5.5
   1642,        -15.5,        -1.75,          -5.
   1643,        -15.5,        -1.75,         -4.5
   1644,        -15.5,        -1.75,          -4.
   1645,        -15.5,        -1.75,         -3.5
   1646,        -15.5,        -1.75,          -3.
   1647,        -15.5,        -1.75,         -2.5
   1648,         -15.,        -1.75,         -5.5
   1649,         -15.,        -1.75,          -5.
   1650,         -15.,        -1.75,         -4.5
   1651,         -15.,        -1.75,          -4.
   1652,         -15.,        -1.75,         -3.5
   1653,         -15.,        -1.75,          -3.
   1654,         -15.,        -1.75,         -2.5
   1655,        -14.5,        -1.75,         -5.5
   1656,        -14.5,        -1.75,          -5.
   1657,        -14.5,        -1.75,         -4.5
   1658,        -14.5,        -1.75,          -4.
   1659,        -14.5,        -1.75,         -3.5
   1660,        -14.5,        -1.75,          -3.
   1661,        -14.5,        -1.75,         -2.5
   1662,        -15.5,        -0.25,         -5.5
   1663,        -15.5,        -0.25,          -5.
   1664,        -15.5,        -0.25,         -4.5
   1665,        -15.5,        -0.25,          -4.
   1666,        -15.5,        -0.25,         -3.5
   1667,        -15.5,        -0.25,          -3.
   1668,        -15.5,        -0.25,         -2.5
   1669,         -15.,        -0.25,         -5.5
   1670,         -15.,        -0.25,          -5.
   1671,         -15.,        -0.25,         -4.5
   1672,         -15.,        -0.25,          -4.
   1673,         -15.,        -0.25,         -3.5
   1674,         -15.,        -0.25,          -3.
   1675,         -15.,        -0.25,         -2.5
   1676,        -14.5,        -0.25,         -5.5
   1677,        -14.5,        -0.25,          -5.
   1678,        -14.5,        -0.25,         -4.5
   1679,        -14.5,        -0.25,          -4.
   1680,        -14.5,        -0.25,         -3.5
   1681,        -14.5,        -0.25,          -3.
   1682,        -14.5,        -0.25,         -2.5
   1683,         -14.,  0.275000006,         -1.5
   1684,         -14.,  0.800000012,         -1.5
   1685,         -14.,   1.32500005,         -1.5
   1686,         -14.,   1.85000002,         -1.5
   1687,         -14.,        2.375,         -1.5
   1688,         -14.,    2.9000001,         -1.5
   1689,         -14.,   3.42499995,         -1.5
   1690,         -14.,   3.95000005,         -1.5
   1691,         -14.,    4.4749999,         -1.5
   1692,         -14.,  0.275000006,          -1.
   1693,         -14.,  0.800000012,          -1.
   1694,         -14.,   1.32500005,          -1.
   1695,         -14.,   1.85000002,          -1.
   1696,         -14.,        2.375,          -1.
   1697,         -14.,    2.9000001,          -1.
   1698,         -14.,   3.42499995,          -1.
   1699,         -14.,   3.95000005,          -1.
   1700,         -14.,    4.4749999,          -1.
   1701,         -14.,  0.275000006,         -0.5
   1702,         -14.,  0.800000012,         -0.5
   1703,         -14.,   1.32500005,         -0.5
   1704,         -14.,   1.85000002,         -0.5
   1705,         -14.,        2.375,         -0.5
   1706,         -14.,    2.9000001,         -0.5
   1707,         -14.,   3.42499995,         -0.5
   1708,         -14.,   3.95000005,         -0.5
   1709,         -14.,    4.4749999,         -0.5
   1710,         -14.,  0.275000006,           0.
   1711,         -14.,  0.800000012,           0.
   1712,         -14.,   1.32500005,           0.
   1713,         -14.,   1.85000002,           0.
   1714,         -14.,        2.375,           0.
   1715,         -14.,    2.9000001,           0.
   1716,         -14.,   3.42499995,           0.
   1717,         -14.,   3.95000005,           0.
   1718,         -14.,    4.4749999,           0.
   1719,         -14.,  0.275000006,          0.5
   1720,         -14.,  0.800000012,          0.5
   1721,         -14.,   1.32500005,          0.5
   1722,         -14.,   1.85000002,          0.5
   1723,         -14.,        2.375,          0.5
   1724,         -14.,    2.9000001,          0.5
   1725,         -14.,   3.42499995,          0.5
   1726,         -14.,   3.95000005,          0.5
   1727,         -14.,    4.4749999,          0.5
   1728,         -14.,  0.275000006,           1.
   1729,         -14.,  0.800000012,           1.
   1730,         -14.,   1.32500005,           1.
   1731,         -14.,   1.85000002,           1.
   1732,         -14.,        2.375,           1.
   1733,         -14.,    2.9000001,           1.
   1734,         -14.,   3.42499995,           1.
   1735,         -14.,   3.95000005,           1.
   1736,         -14.,    4.4749999,           1.
   1737,         -14.,  0.275000006,          1.5
   1738,         -14.,  0.800000012,          1.5
   1739,         -14.,   1.32500005,          1.5
   1740,         -14.,   1.85000002,          1.5
   1741,         -14.,        2.375,          1.5
   1742,         -14.,    2.9000001,          1.5
   1743,         -14.,   3.42499995,          1.5
   1744,         -14.,   3.95000005,          1.5
   1745,         -14.,    4.4749999,          1.5
   1746,         -16.,  0.275000006,         -1.5
   1747,         -16.,  0.800000012,         -1.5
   1748,         -16.,   1.32500005,         -1.5
   1749,         -16.,   1.85000002,         -1.5
   1750,         -16.,        2.375,         -1.5
   1751,         -16.,    2.9000001,         -1.5
   1752,         -16.,   3.42499995,         -1.5
   1753,         -16.,   3.95000005,         -1.5
   1754,         -16.,    4.4749999,         -1.5
   1755,         -16.,  0.275000006,          -1.
   1756,         -16.,  0.800000012,          -1.
   1757,         -16.,   1.32500005,          -1.
   1758,         -16.,   1.85000002,          -1.
   1759,         -16.,        2.375,          -1.
   1760,         -16.,    2.9000001,          -1.
   1761,         -16.,   3.42499995,          -1.
   1762,         -16.,   3.95000005,          -1.
   1763,         -16.,    4.4749999,          -1.
   1764,         -16.,  0.275000006,         -0.5
   1765,         -16.,  0.800000012,         -0.5
   1766,         -16.,   1.32500005,         -0.5
   1767,         -16.,   1.85000002,         -0.5
   1768,         -16.,        2.375,         -0.5
   1769,         -16.,    2.9000001,         -0.5
   1770,         -16.,   3.42499995,         -0.5
   1771,         -16.,   3.95000005,         -0.5
   1772,         -16.,    4.4749999,         -0.5
   1773,         -16.,  0.275000006,           0.
   1774,         -16.,  0.800000012,           0.
   1775,         -16.,   1.32500005,           0.
   1776,         -16.,   1.85000002,           0.
   1777,         -16.,        2.375,           0.
   1778,         -16.,    2.9000001,           0.
   1779,         -16.,   3.42499995,           0.
   1780,         -16.,   3.95000005,           0.
   1781,         -16.,    4.4749999,           0.
   1782,         -16.,  0.275000006,          0.5
   1783,         -16.,  0.800000012,          0.5
   1784,         -16.,   1.32500005,          0.5
   1785,         -16.,   1.85000002,          0.5
   1786,         -16.,        2.375,          0.5
   1787,         -16.,    2.9000001,          0.5
   1788,         -16.,   3.42499995,          0.5
   1789,         -16.,   3.95000005,          0.5
   1790,         -16.,    4.4749999,          0.5
   1791,         -16.,  0.275000006,           1.
   1792,         -16.,  0.800000012,           1.
   1793,         -16.,   1.32500005,           1.
   1794,         -16.,   1.85000002,           1.
   1795,         -16.,        2.375,           1.
   1796,         -16.,    2.9000001,           1.
   1797,         -16.,   3.42499995,           1.
   1798,         -16.,   3.95000005,           1.
   1799,         -16.,    4.4749999,           1.
   1800,         -16.,  0.275000006,          1.5
   1801,         -16.,  0.800000012,          1.5
   1802,         -16.,   1.32500005,          1.5
   1803,         -16.,   1.85000002,          1.5
   1804,         -16.,        2.375,          1.5
   1805,         -16.,    2.9000001,          1.5
   1806,         -16.,   3.42499995,          1.5
   1807,         -16.,   3.95000005,          1.5
   1808,         -16.,    4.4749999,          1.5
   1809,        -14.5,           5.,         -1.5
   1810,        -14.5,           5.,          -1.
   1811,        -14.5,           5.,         -0.5
   1812,        -14.5,           5.,           0.
   1813,        -14.5,           5.,          0.5
   1814,        -14.5,           5.,           1.
   1815,        -14.5,           5.,          1.5
   1816,         -15.,           5.,         -1.5
   1817,         -15.,           5.,          -1.
   1818,         -15.,           5.,         -0.5
   1819,         -15.,           5.,           0.
   1820,         -15.,           5.,          0.5
   1821,         -15.,           5.,           1.
   1822,         -15.,           5.,          1.5
   1823,        -15.5,           5.,         -1.5
   1824,        -15.5,           5.,          -1.
   1825,        -15.5,           5.,         -0.5
   1826,        -15.5,           5.,           0.
   1827,        -15.5,           5.,          0.5
   1828,        -15.5,           5.,           1.
   1829,        -15.5,           5.,          1.5
   1830,        -14.5,  0.275000006,          -2.
   1831,        -14.5,  0.800000012,          -2.
   1832,        -14.5,   1.32500005,          -2.
   1833,        -14.5,   1.85000002,          -2.
   1834,        -14.5,        2.375,          -2.
   1835,        -14.5,    2.9000001,          -2.
   1836,        -14.5,   3.42499995,          -2.
   1837,        -14.5,   3.95000005,          -2.
   1838,        -14.5,    4.4749999,          -2.
   1839,         -15.,  0.275000006,          -2.
   1840,         -15.,  0.800000012,          -2.
   1841,         -15.,   1.32500005,          -2.
   1842,         -15.,   1.85000002,          -2.
   1843,         -15.,        2.375,          -2.
   1844,         -15.,    2.9000001,          -2.
   1845,         -15.,   3.42499995,          -2.
   1846,         -15.,   3.95000005,          -2.
   1847,         -15.,    4.4749999,          -2.
   1848,        -15.5,  0.275000006,          -2.
   1849,        -15.5,  0.800000012,          -2.
   1850,        -15.5,   1.32500005,          -2.
   1851,        -15.5,   1.85000002,          -2.
   1852,        -15.5,        2.375,          -2.
   1853,        -15.5,    2.9000001,          -2.
   1854,        -15.5,   3.42499995,          -2.
   1855,        -15.5,   3.95000005,          -2.
   1856,        -15.5,    4.4749999,          -2.
   1857,        -14.5,          -7.,         -2.5
   1858,         -15.,          -7.,         -2.5
   1859,        -15.5,          -7.,         -2.5
   1860,        -14.5,          -7.,          -3.
   1861,         -15.,          -7.,          -3.
   1862,        -15.5,          -7.,          -3.
   1863,        -14.5,          -7.,         -3.5
   1864,         -15.,          -7.,         -3.5
   1865,        -15.5,          -7.,         -3.5
   1866,        -14.5,          -7.,          -4.
   1867,         -15.,          -7.,          -4.
   1868,        -15.5,          -7.,          -4.
   1869,        -14.5,          -7.,         -4.5
   1870,         -15.,          -7.,         -4.5
   1871,        -15.5,          -7.,         -4.5
   1872,        -14.5,          -7.,          -5.
   1873,         -15.,          -7.,          -5.
   1874,        -15.5,          -7.,          -5.
   1875,        -14.5,          -7.,         -5.5
   1876,         -15.,          -7.,         -5.5
   1877,        -15.5,          -7.,         -5.5
   1878,         -14.,  -2.22727275,         -2.5
   1879,         -14.,  -2.22727275,          -3.
   1880,         -14.,  -2.22727275,         -3.5
   1881,         -14.,  -2.22727275,          -4.
   1882,         -14.,  -2.22727275,         -4.5
   1883,         -14.,  -2.22727275,          -5.
   1884,         -14.,  -2.22727275,         -5.5
   1885,         -14.,   -2.7045455,         -2.5
   1886,         -14.,   -2.7045455,          -3.
   1887,         -14.,   -2.7045455,         -3.5
   1888,         -14.,   -2.7045455,          -4.
   1889,         -14.,   -2.7045455,         -4.5
   1890,         -14.,   -2.7045455,          -5.
   1891,         -14.,   -2.7045455,         -5.5
   1892,         -14.,  -3.18181825,         -2.5
   1893,         -14.,  -3.18181825,          -3.
   1894,         -14.,  -3.18181825,         -3.5
   1895,         -14.,  -3.18181825,          -4.
   1896,         -14.,  -3.18181825,         -4.5
   1897,         -14.,  -3.18181825,          -5.
   1898,         -14.,  -3.18181825,         -5.5
   1899,         -14.,    -3.659091,         -2.5
   1900,         -14.,    -3.659091,          -3.
   1901,         -14.,    -3.659091,         -3.5
   1902,         -14.,    -3.659091,          -4.
   1903,         -14.,    -3.659091,         -4.5
   1904,         -14.,    -3.659091,          -5.
   1905,         -14.,    -3.659091,         -5.5
   1906,         -14.,  -4.13636351,         -2.5
   1907,         -14.,  -4.13636351,          -3.
   1908,         -14.,  -4.13636351,         -3.5
   1909,         -14.,  -4.13636351,          -4.
   1910,         -14.,  -4.13636351,         -4.5
   1911,         -14.,  -4.13636351,          -5.
   1912,         -14.,  -4.13636351,         -5.5
   1913,         -14.,  -4.61363649,         -2.5
   1914,         -14.,  -4.61363649,          -3.
   1915,         -14.,  -4.61363649,         -3.5
   1916,         -14.,  -4.61363649,          -4.
   1917,         -14.,  -4.61363649,         -4.5
   1918,         -14.,  -4.61363649,          -5.
   1919,         -14.,  -4.61363649,         -5.5
   1920,         -14.,    -5.090909,         -2.5
   1921,         -14.,    -5.090909,          -3.
   1922,         -14.,    -5.090909,         -3.5
   1923,         -14.,    -5.090909,          -4.
   1924,         -14.,    -5.090909,         -4.5
   1925,         -14.,    -5.090909,          -5.
   1926,         -14.,    -5.090909,         -5.5
   1927,         -14.,  -5.56818199,         -2.5
   1928,         -14.,  -5.56818199,          -3.
   1929,         -14.,  -5.56818199,         -3.5
   1930,         -14.,  -5.56818199,          -4.
   1931,         -14.,  -5.56818199,         -4.5
   1932,         -14.,  -5.56818199,          -5.
   1933,         -14.,  -5.56818199,         -5.5
   1934,         -14.,   -6.0454545,         -2.5
   1935,         -14.,   -6.0454545,          -3.
   1936,         -14.,   -6.0454545,         -3.5
   1937,         -14.,   -6.0454545,          -4.
   1938,         -14.,   -6.0454545,         -4.5
   1939,         -14.,   -6.0454545,          -5.
   1940,         -14.,   -6.0454545,         -5.5
   1941,         -14.,  -6.52272749,         -2.5
   1942,         -14.,  -6.52272749,          -3.
   1943,         -14.,  -6.52272749,         -3.5
   1944,         -14.,  -6.52272749,          -4.
   1945,         -14.,  -6.52272749,         -4.5
   1946,         -14.,  -6.52272749,          -5.
   1947,         -14.,  -6.52272749,         -5.5
   1948,         -16.,  -2.22727275,         -2.5
   1949,         -16.,  -2.22727275,          -3.
   1950,         -16.,  -2.22727275,         -3.5
   1951,         -16.,  -2.22727275,          -4.
   1952,         -16.,  -2.22727275,         -4.5
   1953,         -16.,  -2.22727275,          -5.
   1954,         -16.,  -2.22727275,         -5.5
   1955,         -16.,   -2.7045455,         -2.5
   1956,         -16.,   -2.7045455,          -3.
   1957,         -16.,   -2.7045455,         -3.5
   1958,         -16.,   -2.7045455,          -4.
   1959,         -16.,   -2.7045455,         -4.5
   1960,         -16.,   -2.7045455,          -5.
   1961,         -16.,   -2.7045455,         -5.5
   1962,         -16.,  -3.18181825,         -2.5
   1963,         -16.,  -3.18181825,          -3.
   1964,         -16.,  -3.18181825,         -3.5
   1965,         -16.,  -3.18181825,          -4.
   1966,         -16.,  -3.18181825,         -4.5
   1967,         -16.,  -3.18181825,          -5.
   1968,         -16.,  -3.18181825,         -5.5
   1969,         -16.,    -3.659091,         -2.5
   1970,         -16.,    -3.659091,          -3.
   1971,         -16.,    -3.659091,         -3.5
   1972,         -16.,    -3.659091,          -4.
   1973,         -16.,    -3.659091,         -4.5
   1974,         -16.,    -3.659091,          -5.
   1975,         -16.,    -3.659091,         -5.5
   1976,         -16.,  -4.13636351,         -2.5
   1977,         -16.,  -4.13636351,          -3.
   1978,         -16.,  -4.13636351,         -3.5
   1979,         -16.,  -4.13636351,          -4.
   1980,         -16.,  -4.13636351,         -4.5
   1981,         -16.,  -4.13636351,          -5.
   1982,         -16.,  -4.13636351,         -5.5
   1983,         -16.,  -4.61363649,         -2.5
   1984,         -16.,  -4.61363649,          -3.
   1985,         -16.,  -4.61363649,         -3.5
   1986,         -16.,  -4.61363649,          -4.
   1987,         -16.,  -4.61363649,         -4.5
   1988,         -16.,  -4.61363649,          -5.
   1989,         -16.,  -4.61363649,         -5.5
   1990,         -16.,    -5.090909,         -2.5
   1991,         -16.,    -5.090909,          -3.
   1992,         -16.,    -5.090909,         -3.5
   1993,         -16.,    -5.090909,          -4.
   1994,         -16.,    -5.090909,         -4.5
   1995,         -16.,    -5.090909,          -5.
   1996,         -16.,    -5.090909,         -5.5
   1997,         -16.,  -5.56818199,         -2.5
   1998,         -16.,  -5.56818199,          -3.
   1999,         -16.,  -5.56818199,         -3.5
   2000,         -16.,  -5.56818199,          -4.
   2001,         -16.,  -5.56818199,         -4.5
   2002,         -16.,  -5.56818199,          -5.
   2003,         -16.,  -5.56818199,         -5.5
   2004,         -16.,   -6.0454545,         -2.5
   2005,         -16.,   -6.0454545,          -3.
   2006,         -16.,   -6.0454545,         -3.5
   2007,         -16.,   -6.0454545,          -4.
   2008,         -16.,   -6.0454545,         -4.5
   2009,         -16.,   -6.0454545,          -5.
   2010,         -16.,   -6.0454545,         -5.5
   2011,         -16.,  -6.52272749,         -2.5
   2012,         -16.,  -6.52272749,          -3.
   2013,         -16.,  -6.52272749,         -3.5
   2014,         -16.,  -6.52272749,          -4.
   2015,         -16.,  -6.52272749,         -4.5
   2016,         -16.,  -6.52272749,          -5.
   2017,         -16.,  -6.52272749,         -5.5
   2018,        -14.5,  -2.22727275,          -2.
   2019,         -15.,  -2.22727275,          -2.
   2020,        -15.5,  -2.22727275,          -2.
   2021,        -14.5,   -2.7045455,          -2.
   2022,         -15.,   -2.7045455,          -2.
   2023,        -15.5,   -2.7045455,          -2.
   2024,        -14.5,  -3.18181825,          -2.
   2025,         -15.,  -3.18181825,          -2.
   2026,        -15.5,  -3.18181825,          -2.
   2027,        -14.5,    -3.659091,          -2.
   2028,         -15.,    -3.659091,          -2.
   2029,        -15.5,    -3.659091,          -2.
   2030,        -14.5,  -4.13636351,          -2.
   2031,         -15.,  -4.13636351,          -2.
   2032,        -15.5,  -4.13636351,          -2.
   2033,        -14.5,  -4.61363649,          -2.
   2034,         -15.,  -4.61363649,          -2.
   2035,        -15.5,  -4.61363649,          -2.
   2036,        -14.5,    -5.090909,          -2.
   2037,         -15.,    -5.090909,          -2.
   2038,        -15.5,    -5.090909,          -2.
   2039,        -14.5,  -5.56818199,          -2.
   2040,         -15.,  -5.56818199,          -2.
   2041,        -15.5,  -5.56818199,          -2.
   2042,        -14.5,   -6.0454545,          -2.
   2043,         -15.,   -6.0454545,          -2.
   2044,        -15.5,   -6.0454545,          -2.
   2045,        -14.5,  -6.52272749,          -2.
   2046,         -15.,  -6.52272749,          -2.
   2047,        -15.5,  -6.52272749,          -2.
   2048,        -14.5,  -2.22727275,          -6.
   2049,         -15.,  -2.22727275,          -6.
   2050,        -15.5,  -2.22727275,          -6.
   2051,        -14.5,   -2.7045455,          -6.
   2052,         -15.,   -2.7045455,          -6.
   2053,        -15.5,   -2.7045455,          -6.
   2054,        -14.5,  -3.18181825,          -6.
   2055,         -15.,  -3.18181825,          -6.
   2056,        -15.5,  -3.18181825,          -6.
   2057,        -14.5,    -3.659091,          -6.
   2058,         -15.,    -3.659091,          -6.
   2059,        -15.5,    -3.659091,          -6.
   2060,        -14.5,  -4.13636351,          -6.
   2061,         -15.,  -4.13636351,          -6.
   2062,        -15.5,  -4.13636351,          -6.
   2063,        -14.5,  -4.61363649,          -6.
   2064,         -15.,  -4.61363649,          -6.
   2065,        -15.5,  -4.61363649,          -6.
   2066,        -14.5,    -5.090909,          -6.
   2067,         -15.,    -5.090909,          -6.
   2068,        -15.5,    -5.090909,          -6.
   2069,        -14.5,  -5.56818199,          -6.
   2070,         -15.,  -5.56818199,          -6.
   2071,        -15.5,  -5.56818199,          -6.
   2072,        -14.5,   -6.0454545,          -6.
   2073,         -15.,   -6.0454545,          -6.
   2074,        -15.5,   -6.0454545,          -6.
   2075,        -14.5,  -6.52272749,          -6.
   2076,         -15.,  -6.52272749,          -6.
   2077,        -15.5,  -6.52272749,          -6.
   2078,         -16.,  0.275000006,         -2.5
   2079,         -16.,  0.800000012,         -2.5
   2080,         -16.,   1.32500005,         -2.5
   2081,         -16.,   1.85000002,         -2.5
   2082,         -16.,        2.375,         -2.5
   2083,         -16.,    2.9000001,         -2.5
   2084,         -16.,   3.42499995,         -2.5
   2085,         -16.,   3.95000005,         -2.5
   2086,         -16.,    4.4749999,         -2.5
   2087,         -16.,  0.275000006,          -3.
   2088,         -16.,  0.800000012,          -3.
   2089,         -16.,   1.32500005,          -3.
   2090,         -16.,   1.85000002,          -3.
   2091,         -16.,        2.375,          -3.
   2092,         -16.,    2.9000001,          -3.
   2093,         -16.,   3.42499995,          -3.
   2094,         -16.,   3.95000005,          -3.
   2095,         -16.,    4.4749999,          -3.
   2096,         -16.,  0.275000006,         -3.5
   2097,         -16.,  0.800000012,         -3.5
   2098,         -16.,   1.32500005,         -3.5
   2099,         -16.,   1.85000002,         -3.5
   2100,         -16.,        2.375,         -3.5
   2101,         -16.,    2.9000001,         -3.5
   2102,         -16.,   3.42499995,         -3.5
   2103,         -16.,   3.95000005,         -3.5
   2104,         -16.,    4.4749999,         -3.5
   2105,         -16.,  0.275000006,          -4.
   2106,         -16.,  0.800000012,          -4.
   2107,         -16.,   1.32500005,          -4.
   2108,         -16.,   1.85000002,          -4.
   2109,         -16.,        2.375,          -4.
   2110,         -16.,    2.9000001,          -4.
   2111,         -16.,   3.42499995,          -4.
   2112,         -16.,   3.95000005,          -4.
   2113,         -16.,    4.4749999,          -4.
   2114,         -16.,  0.275000006,         -4.5
   2115,         -16.,  0.800000012,         -4.5
   2116,         -16.,   1.32500005,         -4.5
   2117,         -16.,   1.85000002,         -4.5
   2118,         -16.,        2.375,         -4.5
   2119,         -16.,    2.9000001,         -4.5
   2120,         -16.,   3.42499995,         -4.5
   2121,         -16.,   3.95000005,         -4.5
   2122,         -16.,    4.4749999,         -4.5
   2123,         -16.,  0.275000006,          -5.
   2124,         -16.,  0.800000012,          -5.
   2125,         -16.,   1.32500005,          -5.
   2126,         -16.,   1.85000002,          -5.
   2127,         -16.,        2.375,          -5.
   2128,         -16.,    2.9000001,          -5.
   2129,         -16.,   3.42499995,          -5.
   2130,         -16.,   3.95000005,          -5.
   2131,         -16.,    4.4749999,          -5.
   2132,         -16.,  0.275000006,         -5.5
   2133,         -16.,  0.800000012,         -5.5
   2134,         -16.,   1.32500005,         -5.5
   2135,         -16.,   1.85000002,         -5.5
   2136,         -16.,        2.375,         -5.5
   2137,         -16.,    2.9000001,         -5.5
   2138,         -16.,   3.42499995,         -5.5
   2139,         -16.,   3.95000005,         -5.5
   2140,         -16.,    4.4749999,         -5.5
   2141,         -14.,  0.275000006,         -2.5
   2142,         -14.,  0.800000012,         -2.5
   2143,         -14.,   1.32500005,         -2.5
   2144,         -14.,   1.85000002,         -2.5
   2145,         -14.,        2.375,         -2.5
   2146,         -14.,    2.9000001,         -2.5
   2147,         -14.,   3.42499995,         -2.5
   2148,         -14.,   3.95000005,         -2.5
   2149,         -14.,    4.4749999,         -2.5
   2150,         -14.,  0.275000006,          -3.
   2151,         -14.,  0.800000012,          -3.
   2152,         -14.,   1.32500005,          -3.
   2153,         -14.,   1.85000002,          -3.
   2154,         -14.,        2.375,          -3.
   2155,         -14.,    2.9000001,          -3.
   2156,         -14.,   3.42499995,          -3.
   2157,         -14.,   3.95000005,          -3.
   2158,         -14.,    4.4749999,          -3.
   2159,         -14.,  0.275000006,         -3.5
   2160,         -14.,  0.800000012,         -3.5
   2161,         -14.,   1.32500005,         -3.5
   2162,         -14.,   1.85000002,         -3.5
   2163,         -14.,        2.375,         -3.5
   2164,         -14.,    2.9000001,         -3.5
   2165,         -14.,   3.42499995,         -3.5
   2166,         -14.,   3.95000005,         -3.5
   2167,         -14.,    4.4749999,         -3.5
   2168,         -14.,  0.275000006,          -4.
   2169,         -14.,  0.800000012,          -4.
   2170,         -14.,   1.32500005,          -4.
   2171,         -14.,   1.85000002,          -4.
   2172,         -14.,        2.375,          -4.
   2173,         -14.,    2.9000001,          -4.
   2174,         -14.,   3.42499995,          -4.
   2175,         -14.,   3.95000005,          -4.
   2176,         -14.,    4.4749999,          -4.
   2177,         -14.,  0.275000006,         -4.5
   2178,         -14.,  0.800000012,         -4.5
   2179,         -14.,   1.32500005,         -4.5
   2180,         -14.,   1.85000002,         -4.5
   2181,         -14.,        2.375,         -4.5
   2182,         -14.,    2.9000001,         -4.5
   2183,         -14.,   3.42499995,         -4.5
   2184,         -14.,   3.95000005,         -4.5
   2185,         -14.,    4.4749999,         -4.5
   2186,         -14.,  0.275000006,          -5.
   2187,         -14.,  0.800000012,          -5.
   2188,         -14.,   1.32500005,          -5.
   2189,         -14.,   1.85000002,          -5.
   2190,         -14.,        2.375,          -5.
   2191,         -14.,    2.9000001,          -5.
   2192,         -14.,   3.42499995,          -5.
   2193,         -14.,   3.95000005,          -5.
   2194,         -14.,    4.4749999,          -5.
   2195,         -14.,  0.275000006,         -5.5
   2196,         -14.,  0.800000012,         -5.5
   2197,         -14.,   1.32500005,         -5.5
   2198,         -14.,   1.85000002,         -5.5
   2199,         -14.,        2.375,         -5.5
   2200,         -14.,    2.9000001,         -5.5
   2201,         -14.,   3.42499995,         -5.5
   2202,         -14.,   3.95000005,         -5.5
   2203,         -14.,    4.4749999,         -5.5
   2204,        -15.5,           5.,         -2.5
   2205,        -15.5,           5.,          -3.
   2206,        -15.5,           5.,         -3.5
   2207,        -15.5,           5.,          -4.
   2208,        -15.5,           5.,         -4.5
   2209,        -15.5,           5.,          -5.
   2210,        -15.5,           5.,         -5.5
   2211,         -15.,           5.,         -2.5
   2212,         -15.,           5.,          -3.
   2213,         -15.,           5.,         -3.5
   2214,         -15.,           5.,          -4.
   2215,         -15.,           5.,         -4.5
   2216,         -15.,           5.,          -5.
   2217,         -15.,           5.,         -5.5
   2218,        -14.5,           5.,         -2.5
   2219,        -14.5,           5.,          -3.
   2220,        -14.5,           5.,         -3.5
   2221,        -14.5,           5.,          -4.
   2222,        -14.5,           5.,         -4.5
   2223,        -14.5,           5.,          -5.
   2224,        -14.5,           5.,         -5.5
   2225,        -15.5,  0.275000006,          -6.
   2226,        -15.5,  0.800000012,          -6.
   2227,        -15.5,   1.32500005,          -6.
   2228,        -15.5,   1.85000002,          -6.
   2229,        -15.5,        2.375,          -6.
   2230,        -15.5,    2.9000001,          -6.
   2231,        -15.5,   3.42499995,          -6.
   2232,        -15.5,   3.95000005,          -6.
   2233,        -15.5,    4.4749999,          -6.
   2234,         -15.,  0.275000006,          -6.
   2235,         -15.,  0.800000012,          -6.
   2236,         -15.,   1.32500005,          -6.
   2237,         -15.,   1.85000002,          -6.
   2238,         -15.,        2.375,          -6.
   2239,         -15.,    2.9000001,          -6.
   2240,         -15.,   3.42499995,          -6.
   2241,         -15.,   3.95000005,          -6.
   2242,         -15.,    4.4749999,          -6.
   2243,        -14.5,  0.275000006,          -6.
   2244,        -14.5,  0.800000012,          -6.
   2245,        -14.5,   1.32500005,          -6.
   2246,        -14.5,   1.85000002,          -6.
   2247,        -14.5,        2.375,          -6.
   2248,        -14.5,    2.9000001,          -6.
   2249,        -14.5,   3.42499995,          -6.
   2250,        -14.5,   3.95000005,          -6.
   2251,        -14.5,    4.4749999,          -6.
   2252,        -15.5,          -7.,         -1.5
   2253,         -15.,          -7.,         -1.5
   2254,        -14.5,          -7.,         -1.5
   2255,        -15.5,          -7.,          -1.
   2256,         -15.,          -7.,          -1.
   2257,        -14.5,          -7.,          -1.
   2258,        -15.5,          -7.,         -0.5
   2259,         -15.,          -7.,         -0.5
   2260,        -14.5,          -7.,         -0.5
   2261,        -15.5,          -7.,           0.
   2262,         -15.,          -7.,           0.
   2263,        -14.5,          -7.,           0.
   2264,        -15.5,          -7.,          0.5
   2265,         -15.,          -7.,          0.5
   2266,        -14.5,          -7.,          0.5
   2267,        -15.5,          -7.,           1.
   2268,         -15.,          -7.,           1.
   2269,        -14.5,          -7.,           1.
   2270,        -15.5,          -7.,          1.5
   2271,         -15.,          -7.,          1.5
   2272,        -14.5,          -7.,          1.5
   2273,         -16.,  -6.52272749,         -1.5
   2274,         -16.,  -6.52272749,          -1.
   2275,         -16.,  -6.52272749,         -0.5
   2276,         -16.,  -6.52272749,           0.
   2277,         -16.,  -6.52272749,          0.5
   2278,         -16.,  -6.52272749,           1.
   2279,         -16.,  -6.52272749,          1.5
   2280,         -16.,   -6.0454545,         -1.5
   2281,         -16.,   -6.0454545,          -1.
   2282,         -16.,   -6.0454545,         -0.5
   2283,         -16.,   -6.0454545,           0.
   2284,         -16.,   -6.0454545,          0.5
   2285,         -16.,   -6.0454545,           1.
   2286,         -16.,   -6.0454545,          1.5
   2287,         -16.,  -5.56818199,         -1.5
   2288,         -16.,  -5.56818199,          -1.
   2289,         -16.,  -5.56818199,         -0.5
   2290,         -16.,  -5.56818199,           0.
   2291,         -16.,  -5.56818199,          0.5
   2292,         -16.,  -5.56818199,           1.
   2293,         -16.,  -5.56818199,          1.5
   2294,         -16.,    -5.090909,         -1.5
   2295,         -16.,    -5.090909,          -1.
   2296,         -16.,    -5.090909,         -0.5
   2297,         -16.,    -5.090909,           0.
   2298,         -16.,    -5.090909,          0.5
   2299,         -16.,    -5.090909,           1.
   2300,         -16.,    -5.090909,          1.5
   2301,         -16.,  -4.61363649,         -1.5
   2302,         -16.,  -4.61363649,          -1.
   2303,         -16.,  -4.61363649,         -0.5
   2304,         -16.,  -4.61363649,           0.
   2305,         -16.,  -4.61363649,          0.5
   2306,         -16.,  -4.61363649,           1.
   2307,         -16.,  -4.61363649,          1.5
   2308,         -16.,  -4.13636351,         -1.5
   2309,         -16.,  -4.13636351,          -1.
   2310,         -16.,  -4.13636351,         -0.5
   2311,         -16.,  -4.13636351,           0.
   2312,         -16.,  -4.13636351,          0.5
   2313,         -16.,  -4.13636351,           1.
   2314,         -16.,  -4.13636351,          1.5
   2315,         -16.,    -3.659091,         -1.5
   2316,         -16.,    -3.659091,          -1.
   2317,         -16.,    -3.659091,         -0.5
   2318,         -16.,    -3.659091,           0.
   2319,         -16.,    -3.659091,          0.5
   2320,         -16.,    -3.659091,           1.
   2321,         -16.,    -3.659091,          1.5
   2322,         -16.,  -3.18181825,         -1.5
   2323,         -16.,  -3.18181825,          -1.
   2324,         -16.,  -3.18181825,         -0.5
   2325,         -16.,  -3.18181825,           0.
   2326,         -16.,  -3.18181825,          0.5
   2327,         -16.,  -3.18181825,           1.
   2328,         -16.,  -3.18181825,          1.5
   2329,         -16.,   -2.7045455,         -1.5
   2330,         -16.,   -2.7045455,          -1.
   2331,         -16.,   -2.7045455,         -0.5
   2332,         -16.,   -2.7045455,           0.
   2333,         -16.,   -2.7045455,          0.5
   2334,         -16.,   -2.7045455,           1.
   2335,         -16.,   -2.7045455,          1.5
   2336,         -16.,  -2.22727275,         -1.5
   2337,         -16.,  -2.22727275,          -1.
   2338,         -16.,  -2.22727275,         -0.5
   2339,         -16.,  -2.22727275,           0.
   2340,         -16.,  -2.22727275,          0.5
   2341,         -16.,  -2.22727275,           1.
   2342,         -16.,  -2.22727275,          1.5
   2343,         -14.,  -6.52272749,         -1.5
   2344,         -14.,  -6.52272749,          -1.
   2345,         -14.,  -6.52272749,         -0.5
   2346,         -14.,  -6.52272749,           0.
   2347,         -14.,  -6.52272749,          0.5
   2348,         -14.,  -6.52272749,           1.
   2349,         -14.,  -6.52272749,          1.5
   2350,         -14.,   -6.0454545,         -1.5
   2351,         -14.,   -6.0454545,          -1.
   2352,         -14.,   -6.0454545,         -0.5
   2353,         -14.,   -6.0454545,           0.
   2354,         -14.,   -6.0454545,          0.5
   2355,         -14.,   -6.0454545,           1.
   2356,         -14.,   -6.0454545,          1.5
   2357,         -14.,  -5.56818199,         -1.5
   2358,         -14.,  -5.56818199,          -1.
   2359,         -14.,  -5.56818199,         -0.5
   2360,         -14.,  -5.56818199,           0.
   2361,         -14.,  -5.56818199,          0.5
   2362,         -14.,  -5.56818199,           1.
   2363,         -14.,  -5.56818199,          1.5
   2364,         -14.,    -5.090909,         -1.5
   2365,         -14.,    -5.090909,          -1.
   2366,         -14.,    -5.090909,         -0.5
   2367,         -14.,    -5.090909,           0.
   2368,         -14.,    -5.090909,          0.5
   2369,         -14.,    -5.090909,           1.
   2370,         -14.,    -5.090909,          1.5
   2371,         -14.,  -4.61363649,         -1.5
   2372,         -14.,  -4.61363649,          -1.
   2373,         -14.,  -4.61363649,         -0.5
   2374,         -14.,  -4.61363649,           0.
   2375,         -14.,  -4.61363649,          0.5
   2376,         -14.,  -4.61363649,           1.
   2377,         -14.,  -4.61363649,          1.5
   2378,         -14.,  -4.13636351,         -1.5
   2379,         -14.,  -4.13636351,          -1.
   2380,         -14.,  -4.13636351,         -0.5
   2381,         -14.,  -4.13636351,           0.
   2382,         -14.,  -4.13636351,          0.5
   2383,         -14.,  -4.13636351,           1.
   2384,         -14.,  -4.13636351,          1.5
   2385,         -14.,    -3.659091,         -1.5
   2386,         -14.,    -3.659091,          -1.
   2387,         -14.,    -3.659091,         -0.5
   2388,         -14.,    -3.659091,           0.
   2389,         -14.,    -3.659091,          0.5
   2390,         -14.,    -3.659091,           1.
   2391,         -14.,    -3.659091,          1.5
   2392,         -14.,  -3.18181825,         -1.5
   2393,         -14.,  -3.18181825,          -1.
   2394,         -14.,  -3.18181825,         -0.5
   2395,         -14.,  -3.18181825,           0.
   2396,         -14.,  -3.18181825,          0.5
   2397,         -14.,  -3.18181825,           1.
   2398,         -14.,  -3.18181825,          1.5
   2399,         -14.,   -2.7045455,         -1.5
   2400,         -14.,   -2.7045455,          -1.
   2401,         -14.,   -2.7045455,         -0.5
   2402,         -14.,   -2.7045455,           0.
   2403,         -14.,   -2.7045455,          0.5
   2404,         -14.,   -2.7045455,           1.
   2405,         -14.,   -2.7045455,          1.5
   2406,         -14.,  -2.22727275,         -1.5
   2407,         -14.,  -2.22727275,          -1.
   2408,         -14.,  -2.22727275,         -0.5
   2409,         -14.,  -2.22727275,           0.
   2410,         -14.,  -2.22727275,          0.5
   2411,         -14.,  -2.22727275,           1.
   2412,         -14.,  -2.22727275,          1.5
   2413,        -15.5,  -6.52272749,           2.
   2414,         -15.,  -6.52272749,           2.
   2415,        -14.5,  -6.52272749,           2.
   2416,        -15.5,   -6.0454545,           2.
   2417,         -15.,   -6.0454545,           2.
   2418,        -14.5,   -6.0454545,           2.
   2419,        -15.5,  -5.56818199,           2.
   2420,         -15.,  -5.56818199,           2.
   2421,        -14.5,  -5.56818199,           2.
   2422,        -15.5,    -5.090909,           2.
   2423,         -15.,    -5.090909,           2.
   2424,        -14.5,    -5.090909,           2.
   2425,        -15.5,  -4.61363649,           2.
   2426,         -15.,  -4.61363649,           2.
   2427,        -14.5,  -4.61363649,           2.
   2428,        -15.5,  -4.13636351,           2.
   2429,         -15.,  -4.13636351,           2.
   2430,        -14.5,  -4.13636351,           2.
   2431,        -15.5,    -3.659091,           2.
   2432,         -15.,    -3.659091,           2.
   2433,        -14.5,    -3.659091,           2.
   2434,        -15.5,  -3.18181825,           2.
   2435,         -15.,  -3.18181825,           2.
   2436,        -14.5,  -3.18181825,           2.
   2437,        -15.5,   -2.7045455,           2.
   2438,         -15.,   -2.7045455,           2.
   2439,        -14.5,   -2.7045455,           2.
   2440,        -15.5,  -2.22727275,           2.
   2441,         -15.,  -2.22727275,           2.
   2442,        -14.5,  -2.22727275,           2.
   2443,        -15.5,          -7.,          2.5
   2444,         -15.,          -7.,          2.5
   2445,        -14.5,          -7.,          2.5
   2446,        -15.5,          -7.,           3.
   2447,         -15.,          -7.,           3.
   2448,        -14.5,          -7.,           3.
   2449,        -15.5,          -7.,          3.5
   2450,         -15.,          -7.,          3.5
   2451,        -14.5,          -7.,          3.5
   2452,        -15.5,          -7.,           4.
   2453,         -15.,          -7.,           4.
   2454,        -14.5,          -7.,           4.
   2455,        -15.5,          -7.,          4.5
   2456,         -15.,          -7.,          4.5
   2457,        -14.5,          -7.,          4.5
   2458,        -15.5,          -7.,           5.
   2459,         -15.,          -7.,           5.
   2460,        -14.5,          -7.,           5.
   2461,        -15.5,          -7.,          5.5
   2462,         -15.,          -7.,          5.5
   2463,        -14.5,          -7.,          5.5
   2464,         -16.,  -6.52272749,          2.5
   2465,         -16.,  -6.52272749,           3.
   2466,         -16.,  -6.52272749,          3.5
   2467,         -16.,  -6.52272749,           4.
   2468,         -16.,  -6.52272749,          4.5
   2469,         -16.,  -6.52272749,           5.
   2470,         -16.,  -6.52272749,          5.5
   2471,         -16.,   -6.0454545,          2.5
   2472,         -16.,   -6.0454545,           3.
   2473,         -16.,   -6.0454545,          3.5
   2474,         -16.,   -6.0454545,           4.
   2475,         -16.,   -6.0454545,          4.5
   2476,         -16.,   -6.0454545,           5.
   2477,         -16.,   -6.0454545,          5.5
   2478,         -16.,  -5.56818199,          2.5
   2479,         -16.,  -5.56818199,           3.
   2480,         -16.,  -5.56818199,          3.5
   2481,         -16.,  -5.56818199,           4.
   2482,         -16.,  -5.56818199,          4.5
   2483,         -16.,  -5.56818199,           5.
   2484,         -16.,  -5.56818199,          5.5
   2485,         -16.,    -5.090909,          2.5
   2486,         -16.,    -5.090909,           3.
   2487,         -16.,    -5.090909,          3.5
   2488,         -16.,    -5.090909,           4.
   2489,         -16.,    -5.090909,          4.5
   2490,         -16.,    -5.090909,           5.
   2491,         -16.,    -5.090909,          5.5
   2492,         -16.,  -4.61363649,          2.5
   2493,         -16.,  -4.61363649,           3.
   2494,         -16.,  -4.61363649,          3.5
   2495,         -16.,  -4.61363649,           4.
   2496,         -16.,  -4.61363649,          4.5
   2497,         -16.,  -4.61363649,           5.
   2498,         -16.,  -4.61363649,          5.5
   2499,         -16.,  -4.13636351,          2.5
   2500,         -16.,  -4.13636351,           3.
   2501,         -16.,  -4.13636351,          3.5
   2502,         -16.,  -4.13636351,           4.
   2503,         -16.,  -4.13636351,          4.5
   2504,         -16.,  -4.13636351,           5.
   2505,         -16.,  -4.13636351,          5.5
   2506,         -16.,    -3.659091,          2.5
   2507,         -16.,    -3.659091,           3.
   2508,         -16.,    -3.659091,          3.5
   2509,         -16.,    -3.659091,           4.
   2510,         -16.,    -3.659091,          4.5
   2511,         -16.,    -3.659091,           5.
   2512,         -16.,    -3.659091,          5.5
   2513,         -16.,  -3.18181825,          2.5
   2514,         -16.,  -3.18181825,           3.
   2515,         -16.,  -3.18181825,          3.5
   2516,         -16.,  -3.18181825,           4.
   2517,         -16.,  -3.18181825,          4.5
   2518,         -16.,  -3.18181825,           5.
   2519,         -16.,  -3.18181825,          5.5
   2520,         -16.,   -2.7045455,          2.5
   2521,         -16.,   -2.7045455,           3.
   2522,         -16.,   -2.7045455,          3.5
   2523,         -16.,   -2.7045455,           4.
   2524,         -16.,   -2.7045455,          4.5
   2525,         -16.,   -2.7045455,           5.
   2526,         -16.,   -2.7045455,          5.5
   2527,         -16.,  -2.22727275,          2.5
   2528,         -16.,  -2.22727275,           3.
   2529,         -16.,  -2.22727275,          3.5
   2530,         -16.,  -2.22727275,           4.
   2531,         -16.,  -2.22727275,          4.5
   2532,         -16.,  -2.22727275,           5.
   2533,         -16.,  -2.22727275,          5.5
   2534,         -14.,  -6.52272749,          2.5
   2535,         -14.,  -6.52272749,           3.
   2536,         -14.,  -6.52272749,          3.5
   2537,         -14.,  -6.52272749,           4.
   2538,         -14.,  -6.52272749,          4.5
   2539,         -14.,  -6.52272749,           5.
   2540,         -14.,  -6.52272749,          5.5
   2541,         -14.,   -6.0454545,          2.5
   2542,         -14.,   -6.0454545,           3.
   2543,         -14.,   -6.0454545,          3.5
   2544,         -14.,   -6.0454545,           4.
   2545,         -14.,   -6.0454545,          4.5
   2546,         -14.,   -6.0454545,           5.
   2547,         -14.,   -6.0454545,          5.5
   2548,         -14.,  -5.56818199,          2.5
   2549,         -14.,  -5.56818199,           3.
   2550,         -14.,  -5.56818199,          3.5
   2551,         -14.,  -5.56818199,           4.
   2552,         -14.,  -5.56818199,          4.5
   2553,         -14.,  -5.56818199,           5.
   2554,         -14.,  -5.56818199,          5.5
   2555,         -14.,    -5.090909,          2.5
   2556,         -14.,    -5.090909,           3.
   2557,         -14.,    -5.090909,          3.5
   2558,         -14.,    -5.090909,           4.
   2559,         -14.,    -5.090909,          4.5
   2560,         -14.,    -5.090909,           5.
   2561,         -14.,    -5.090909,          5.5
   2562,         -14.,  -4.61363649,          2.5
   2563,         -14.,  -4.61363649,           3.
   2564,         -14.,  -4.61363649,          3.5
   2565,         -14.,  -4.61363649,           4.
   2566,         -14.,  -4.61363649,          4.5
   2567,         -14.,  -4.61363649,           5.
   2568,         -14.,  -4.61363649,          5.5
   2569,         -14.,  -4.13636351,          2.5
   2570,         -14.,  -4.13636351,           3.
   2571,         -14.,  -4.13636351,          3.5
   2572,         -14.,  -4.13636351,           4.
   2573,         -14.,  -4.13636351,          4.5
   2574,         -14.,  -4.13636351,           5.
   2575,         -14.,  -4.13636351,          5.5
   2576,         -14.,    -3.659091,          2.5
   2577,         -14.,    -3.659091,           3.
   2578,         -14.,    -3.659091,          3.5
   2579,         -14.,    -3.659091,           4.
   2580,         -14.,    -3.659091,          4.5
   2581,         -14.,    -3.659091,           5.
   2582,         -14.,    -3.659091,          5.5
   2583,         -14.,  -3.18181825,          2.5
   2584,         -14.,  -3.18181825,           3.
   2585,         -14.,  -3.18181825,          3.5
   2586,         -14.,  -3.18181825,           4.
   2587,         -14.,  -3.18181825,          4.5
   2588,         -14.,  -3.18181825,           5.
   2589,         -14.,  -3.18181825,          5.5
   2590,         -14.,   -2.7045455,          2.5
   2591,         -14.,   -2.7045455,           3.
   2592,         -14.,   -2.7045455,          3.5
   2593,         -14.,   -2.7045455,           4.
   2594,         -14.,   -2.7045455,          4.5
   2595,         -14.,   -2.7045455,           5.
   2596,         -14.,   -2.7045455,          5.5
   2597,         -14.,  -2.22727275,          2.5
   2598,         -14.,  -2.22727275,           3.
   2599,         -14.,  -2.22727275,          3.5
   2600,         -14.,  -2.22727275,           4.
   2601,         -14.,  -2.22727275,          4.5
   2602,         -14.,  -2.22727275,           5.
   2603,         -14.,  -2.22727275,          5.5
   2604,        -15.5,  -6.52272749,           6.
   2605,         -15.,  -6.52272749,           6.
   2606,        -14.5,  -6.52272749,           6.
   2607,        -15.5,   -6.0454545,           6.
   2608,         -15.,   -6.0454545,           6.
   2609,        -14.5,   -6.0454545,           6.
   2610,        -15.5,  -5.56818199,           6.
   2611,         -15.,  -5.56818199,           6.
   2612,        -14.5,  -5.56818199,           6.
   2613,        -15.5,    -5.090909,           6.
   2614,         -15.,    -5.090909,           6.
   2615,        -14.5,    -5.090909,           6.
   2616,        -15.5,  -4.61363649,           6.
   2617,         -15.,  -4.61363649,           6.
   2618,        -14.5,  -4.61363649,           6.
   2619,        -15.5,  -4.13636351,           6.
   2620,         -15.,  -4.13636351,           6.
   2621,        -14.5,  -4.13636351,           6.
   2622,        -15.5,    -3.659091,           6.
   2623,         -15.,    -3.659091,           6.
   2624,        -14.5,    -3.659091,           6.
   2625,        -15.5,  -3.18181825,           6.
   2626,         -15.,  -3.18181825,           6.
   2627,        -14.5,  -3.18181825,           6.
   2628,        -15.5,   -2.7045455,           6.
   2629,         -15.,   -2.7045455,           6.
   2630,        -14.5,   -2.7045455,           6.
   2631,        -15.5,  -2.22727275,           6.
   2632,         -15.,  -2.22727275,           6.
   2633,        -14.5,  -2.22727275,           6.
   2634,  -2.33333325, -0.916666746,         -1.5
   2635,  -2.66666675, -0.583333313,         -1.5
   2636,          -3.,        -0.25,         -1.5
   2637,  -3.33333325, 0.0833332911,         -1.5
   2638,  -3.66666675,  0.416666687,         -1.5
   2639,  -2.33333325, -0.916666746,          -1.
   2640,  -2.66666675, -0.583333313,          -1.
   2641,          -3.,        -0.25,          -1.
   2642,  -3.33333325, 0.0833332911,          -1.
   2643,  -3.66666675,  0.416666687,          -1.
   2644,  -2.33333325, -0.916666746,         -0.5
   2645,  -2.66666675, -0.583333313,         -0.5
   2646,          -3.,        -0.25,         -0.5
   2647,  -3.33333325, 0.0833332911,         -0.5
   2648,  -3.66666675,  0.416666687,         -0.5
   2649,  -2.33333325, -0.916666746,           0.
   2650,  -2.66666675, -0.583333313,           0.
   2651,          -3.,        -0.25,           0.
   2652,  -3.33333325, 0.0833332911,           0.
   2653,  -3.66666675,  0.416666687,           0.
   2654,  -2.33333325, -0.916666746,          0.5
   2655,  -2.66666675, -0.583333313,          0.5
   2656,          -3.,        -0.25,          0.5
   2657,  -3.33333325, 0.0833332911,          0.5
   2658,  -3.66666675,  0.416666687,          0.5
   2659,  -2.33333325, -0.916666746,           1.
   2660,  -2.66666675, -0.583333313,           1.
   2661,          -3.,        -0.25,           1.
   2662,  -3.33333325, 0.0833332911,           1.
   2663,  -3.66666675,  0.416666687,           1.
   2664,  -2.33333325, -0.916666746,          1.5
   2665,  -2.66666675, -0.583333313,          1.5
   2666,          -3.,        -0.25,          1.5
   2667,  -3.33333325, 0.0833332911,          1.5
   2668,  -3.66666675,  0.416666687,          1.5
   2669,  -2.33333325,        -1.75,         -1.5
   2670,  -2.66666675,        -1.75,         -1.5
   2671,          -3.,        -1.75,         -1.5
   2672,  -3.33333325,        -1.75,         -1.5
   2673,  -3.66666675,        -1.75,         -1.5
   2674,  -2.33333325,        -1.75,          -1.
   2675,  -2.66666675,        -1.75,          -1.
   2676,          -3.,        -1.75,          -1.
   2677,  -3.33333325,        -1.75,          -1.
   2678,  -3.66666675,        -1.75,          -1.
   2679,  -2.33333325,        -1.75,         -0.5
   2680,  -2.66666675,        -1.75,         -0.5
   2681,          -3.,        -1.75,         -0.5
   2682,  -3.33333325,        -1.75,         -0.5
   2683,  -3.66666675,        -1.75,         -0.5
   2684,  -2.33333325,        -1.75,           0.
   2685,  -2.66666675,        -1.75,           0.
   2686,          -3.,        -1.75,           0.
   2687,  -3.33333325,        -1.75,           0.
   2688,  -3.66666675,        -1.75,           0.
   2689,  -2.33333325,        -1.75,          0.5
   2690,  -2.66666675,        -1.75,          0.5
   2691,          -3.,        -1.75,          0.5
   2692,  -3.33333325,        -1.75,          0.5
   2693,  -3.66666675,        -1.75,          0.5
   2694,  -2.33333325,        -1.75,           1.
   2695,  -2.66666675,        -1.75,           1.
   2696,          -3.,        -1.75,           1.
   2697,  -3.33333325,        -1.75,           1.
   2698,  -3.66666675,        -1.75,           1.
   2699,  -2.33333325,        -1.75,          1.5
   2700,  -2.66666675,        -1.75,          1.5
   2701,          -3.,        -1.75,          1.5
   2702,  -3.33333325,        -1.75,          1.5
   2703,  -3.66666675,        -1.75,          1.5
   2704,          -2.,      -1.3125,         -1.5
   2705,          -2.,      -1.3125,          -1.
   2706,          -2.,      -1.3125,         -0.5
   2707,          -2.,      -1.3125,           0.
   2708,          -2.,      -1.3125,          0.5
   2709,          -2.,      -1.3125,           1.
   2710,          -2.,      -1.3125,          1.5
   2711,          -2.,       -1.375,         -1.5
   2712,          -2.,       -1.375,          -1.
   2713,          -2.,       -1.375,         -0.5
   2714,          -2.,       -1.375,           0.
   2715,          -2.,       -1.375,          0.5
   2716,          -2.,       -1.375,           1.
   2717,          -2.,       -1.375,          1.5
   2718,          -2.,      -1.4375,         -1.5
   2719,          -2.,      -1.4375,          -1.
   2720,          -2.,      -1.4375,         -0.5
   2721,          -2.,      -1.4375,           0.
   2722,          -2.,      -1.4375,          0.5
   2723,          -2.,      -1.4375,           1.
   2724,          -2.,      -1.4375,          1.5
   2725,          -2.,         -1.5,         -1.5
   2726,          -2.,         -1.5,          -1.
   2727,          -2.,         -1.5,         -0.5
   2728,          -2.,         -1.5,           0.
   2729,          -2.,         -1.5,          0.5
   2730,          -2.,         -1.5,           1.
   2731,          -2.,         -1.5,          1.5
   2732,          -2.,      -1.5625,         -1.5
   2733,          -2.,      -1.5625,          -1.
   2734,          -2.,      -1.5625,         -0.5
   2735,          -2.,      -1.5625,           0.
   2736,          -2.,      -1.5625,          0.5
   2737,          -2.,      -1.5625,           1.
   2738,          -2.,      -1.5625,          1.5
   2739,          -2.,       -1.625,         -1.5
   2740,          -2.,       -1.625,          -1.
   2741,          -2.,       -1.625,         -0.5
   2742,          -2.,       -1.625,           0.
   2743,          -2.,       -1.625,          0.5
   2744,          -2.,       -1.625,           1.
   2745,          -2.,       -1.625,          1.5
   2746,          -2.,      -1.6875,         -1.5
   2747,          -2.,      -1.6875,          -1.
   2748,          -2.,      -1.6875,         -0.5
   2749,          -2.,      -1.6875,           0.
   2750,          -2.,      -1.6875,          0.5
   2751,          -2.,      -1.6875,           1.
   2752,          -2.,      -1.6875,          1.5
   2753,  -2.33333325,  -1.01041663,          -2.
   2754,  -2.66666675, -0.708333313,          -2.
   2755,          -3.,     -0.40625,          -2.
   2756,  -3.33333325, -0.104166664,          -2.
   2757,  -3.66666675,  0.197916672,          -2.
   2758,  -2.33333325,  -1.10416663,          -2.
   2759,  -2.66666675, -0.833333313,          -2.
   2760,          -3.,      -0.5625,          -2.
   2761,  -3.33333325, -0.291666657,          -2.
   2762,  -3.66666675, -0.020833334,          -2.
   2763,  -2.33333325,  -1.19791663,          -2.
   2764,  -2.66666675, -0.958333313,          -2.
   2765,          -3.,     -0.71875,          -2.
   2766,  -3.33333325, -0.479166657,          -2.
   2767,  -3.66666675, -0.239583328,          -2.
   2768,  -2.33333325,  -1.29166663,          -2.
   2769,  -2.66666675,  -1.08333337,          -2.
   2770,          -3.,       -0.875,          -2.
   2771,  -3.33333325, -0.666666687,          -2.
   2772,  -3.66666675, -0.458333343,          -2.
   2773,  -2.33333325,     -1.40625,          -2.
   2774,  -2.66666675,        -1.25,          -2.
   2775,          -3.,     -1.09375,          -2.
   2776,  -3.33333325,      -0.9375,          -2.
   2777,  -3.66666675,     -0.78125,          -2.
   2778,  -2.33333325,  -1.52083337,          -2.
   2779,  -2.66666675,  -1.41666663,          -2.
   2780,          -3.,      -1.3125,          -2.
   2781,  -3.33333325,  -1.20833337,          -2.
   2782,  -3.66666675,  -1.10416663,          -2.
   2783,  -2.33333325,  -1.63541663,          -2.
   2784,  -2.66666675,  -1.58333337,          -2.
   2785,          -3.,     -1.53125,          -2.
   2786,  -3.33333325,  -1.47916663,          -2.
   2787,  -3.66666675,  -1.42708337,          -2.
   2788,  -2.33333325,  -1.01041663,           2.
   2789,  -2.66666675, -0.708333313,           2.
   2790,          -3.,     -0.40625,           2.
   2791,  -3.33333325, -0.104166664,           2.
   2792,  -3.66666675,  0.197916672,           2.
   2793,  -2.33333325,  -1.10416663,           2.
   2794,  -2.66666675, -0.833333313,           2.
   2795,          -3.,      -0.5625,           2.
   2796,  -3.33333325, -0.291666657,           2.
   2797,  -3.66666675, -0.020833334,           2.
   2798,  -2.33333325,  -1.19791663,           2.
   2799,  -2.66666675, -0.958333313,           2.
   2800,          -3.,     -0.71875,           2.
   2801,  -3.33333325, -0.479166657,           2.
   2802,  -3.66666675, -0.239583328,           2.
   2803,  -2.33333325,  -1.29166663,           2.
   2804,  -2.66666675,  -1.08333337,           2.
   2805,          -3.,       -0.875,           2.
   2806,  -3.33333325, -0.666666687,           2.
   2807,  -3.66666675, -0.458333343,           2.
   2808,  -2.33333325,     -1.40625,           2.
   2809,  -2.66666675,        -1.25,           2.
   2810,          -3.,     -1.09375,           2.
   2811,  -3.33333325,      -0.9375,           2.
   2812,  -3.66666675,     -0.78125,           2.
   2813,  -2.33333325,  -1.52083337,           2.
   2814,  -2.66666675,  -1.41666663,           2.
   2815,          -3.,      -1.3125,           2.
   2816,  -3.33333325,  -1.20833337,           2.
   2817,  -3.66666675,  -1.10416663,           2.
   2818,  -2.33333325,  -1.63541663,           2.
   2819,  -2.66666675,  -1.58333337,           2.
   2820,          -3.,     -1.53125,           2.
   2821,  -3.33333325,  -1.47916663,           2.
   2822,  -3.66666675,  -1.42708337,           2.
   2823,  -4.33333349,           0.,         -1.5
   2824,  -4.33333349,           0.,          -1.
   2825,  -4.33333349,           0.,         -0.5
   2826,  -4.33333349,           0.,           0.
   2827,  -4.33333349,           0.,          0.5
   2828,  -4.33333349,           0.,           1.
   2829,  -4.33333349,           0.,          1.5
   2830,  -4.33333349,         0.25,         -1.5
   2831,  -4.33333349,         0.25,          -1.
   2832,  -4.33333349,         0.25,         -0.5
   2833,  -4.33333349,         0.25,           0.
   2834,  -4.33333349,         0.25,          0.5
   2835,  -4.33333349,         0.25,           1.
   2836,  -4.33333349,         0.25,          1.5
   2837,  -4.33333349,          0.5,         -1.5
   2838,  -4.33333349,          0.5,          -1.
   2839,  -4.33333349,          0.5,         -0.5
   2840,  -4.33333349,          0.5,           0.
   2841,  -4.33333349,          0.5,          0.5
   2842,  -4.33333349,          0.5,           1.
   2843,  -4.33333349,          0.5,          1.5
   2844,  -4.66666651,           0.,         -1.5
   2845,  -4.66666651,           0.,          -1.
   2846,  -4.66666651,           0.,         -0.5
   2847,  -4.66666651,           0.,           0.
   2848,  -4.66666651,           0.,          0.5
   2849,  -4.66666651,           0.,           1.
   2850,  -4.66666651,           0.,          1.5
   2851,  -4.66666651,         0.25,         -1.5
   2852,  -4.66666651,         0.25,          -1.
   2853,  -4.66666651,         0.25,         -0.5
   2854,  -4.66666651,         0.25,           0.
   2855,  -4.66666651,         0.25,          0.5
   2856,  -4.66666651,         0.25,           1.
   2857,  -4.66666651,         0.25,          1.5
   2858,  -4.66666651,          0.5,         -1.5
   2859,  -4.66666651,          0.5,          -1.
   2860,  -4.66666651,          0.5,         -0.5
   2861,  -4.66666651,          0.5,           0.
   2862,  -4.66666651,          0.5,          0.5
   2863,  -4.66666651,          0.5,           1.
   2864,  -4.66666651,          0.5,          1.5
   2865,          -5.,           0.,         -1.5
   2866,          -5.,           0.,          -1.
   2867,          -5.,           0.,         -0.5
   2868,          -5.,           0.,           0.
   2869,          -5.,           0.,          0.5
   2870,          -5.,           0.,           1.
   2871,          -5.,           0.,          1.5
   2872,          -5.,         0.25,         -1.5
   2873,          -5.,         0.25,          -1.
   2874,          -5.,         0.25,         -0.5
   2875,          -5.,         0.25,           0.
   2876,          -5.,         0.25,          0.5
   2877,          -5.,         0.25,           1.
   2878,          -5.,         0.25,          1.5
   2879,          -5.,          0.5,         -1.5
   2880,          -5.,          0.5,          -1.
   2881,          -5.,          0.5,         -0.5
   2882,          -5.,          0.5,           0.
   2883,          -5.,          0.5,          0.5
   2884,          -5.,          0.5,           1.
   2885,          -5.,          0.5,          1.5
   2886,  -5.33333349,           0.,         -1.5
   2887,  -5.33333349,           0.,          -1.
   2888,  -5.33333349,           0.,         -0.5
   2889,  -5.33333349,           0.,           0.
   2890,  -5.33333349,           0.,          0.5
   2891,  -5.33333349,           0.,           1.
   2892,  -5.33333349,           0.,          1.5
   2893,  -5.33333349,         0.25,         -1.5
   2894,  -5.33333349,         0.25,          -1.
   2895,  -5.33333349,         0.25,         -0.5
   2896,  -5.33333349,         0.25,           0.
   2897,  -5.33333349,         0.25,          0.5
   2898,  -5.33333349,         0.25,           1.
   2899,  -5.33333349,         0.25,          1.5
   2900,  -5.33333349,          0.5,         -1.5
   2901,  -5.33333349,          0.5,          -1.
   2902,  -5.33333349,          0.5,         -0.5
   2903,  -5.33333349,          0.5,           0.
   2904,  -5.33333349,          0.5,          0.5
   2905,  -5.33333349,          0.5,           1.
   2906,  -5.33333349,          0.5,          1.5
   2907,  -5.66666651,           0.,         -1.5
   2908,  -5.66666651,           0.,          -1.
   2909,  -5.66666651,           0.,         -0.5
   2910,  -5.66666651,           0.,           0.
   2911,  -5.66666651,           0.,          0.5
   2912,  -5.66666651,           0.,           1.
   2913,  -5.66666651,           0.,          1.5
   2914,  -5.66666651,         0.25,         -1.5
   2915,  -5.66666651,         0.25,          -1.
   2916,  -5.66666651,         0.25,         -0.5
   2917,  -5.66666651,         0.25,           0.
   2918,  -5.66666651,         0.25,          0.5
   2919,  -5.66666651,         0.25,           1.
   2920,  -5.66666651,         0.25,          1.5
   2921,  -5.66666651,          0.5,         -1.5
   2922,  -5.66666651,          0.5,          -1.
   2923,  -5.66666651,          0.5,         -0.5
   2924,  -5.66666651,          0.5,           0.
   2925,  -5.66666651,          0.5,          0.5
   2926,  -5.66666651,          0.5,           1.
   2927,  -5.66666651,          0.5,          1.5
   2928,  -4.33333349,       -1.375,         -1.5
   2929,  -4.33333349,       -1.375,          -1.
   2930,  -4.33333349,       -1.375,         -0.5
   2931,  -4.33333349,       -1.375,           0.
   2932,  -4.33333349,       -1.375,          0.5
   2933,  -4.33333349,       -1.375,           1.
   2934,  -4.33333349,       -1.375,          1.5
   2935,  -4.66666651,       -1.375,         -1.5
   2936,  -4.66666651,       -1.375,          -1.
   2937,  -4.66666651,       -1.375,         -0.5
   2938,  -4.66666651,       -1.375,           0.
   2939,  -4.66666651,       -1.375,          0.5
   2940,  -4.66666651,       -1.375,           1.
   2941,  -4.66666651,       -1.375,          1.5
   2942,          -5.,       -1.375,         -1.5
   2943,          -5.,       -1.375,          -1.
   2944,          -5.,       -1.375,         -0.5
   2945,          -5.,       -1.375,           0.
   2946,          -5.,       -1.375,          0.5
   2947,          -5.,       -1.375,           1.
   2948,          -5.,       -1.375,          1.5
   2949,  -5.33333349,       -1.375,         -1.5
   2950,  -5.33333349,       -1.375,          -1.
   2951,  -5.33333349,       -1.375,         -0.5
   2952,  -5.33333349,       -1.375,           0.
   2953,  -5.33333349,       -1.375,          0.5
   2954,  -5.33333349,       -1.375,           1.
   2955,  -5.33333349,       -1.375,          1.5
   2956,  -5.66666651,       -1.375,         -1.5
   2957,  -5.66666651,       -1.375,          -1.
   2958,  -5.66666651,       -1.375,         -0.5
   2959,  -5.66666651,       -1.375,           0.
   2960,  -5.66666651,       -1.375,          0.5
   2961,  -5.66666651,       -1.375,           1.
   2962,  -5.66666651,       -1.375,          1.5
   2963,  -4.33333349,          -1.,         -1.5
   2964,  -4.33333349,          -1.,          -1.
   2965,  -4.33333349,          -1.,         -0.5
   2966,  -4.33333349,          -1.,           0.
   2967,  -4.33333349,          -1.,          0.5
   2968,  -4.33333349,          -1.,           1.
   2969,  -4.33333349,          -1.,          1.5
   2970,  -4.66666651,          -1.,         -1.5
   2971,  -4.66666651,          -1.,          -1.
   2972,  -4.66666651,          -1.,         -0.5
   2973,  -4.66666651,          -1.,           0.
   2974,  -4.66666651,          -1.,          0.5
   2975,  -4.66666651,          -1.,           1.
   2976,  -4.66666651,          -1.,          1.5
   2977,          -5.,          -1.,         -1.5
   2978,          -5.,          -1.,          -1.
   2979,          -5.,          -1.,         -0.5
   2980,          -5.,          -1.,           0.
   2981,          -5.,          -1.,          0.5
   2982,          -5.,          -1.,           1.
   2983,          -5.,          -1.,          1.5
   2984,  -5.33333349,          -1.,         -1.5
   2985,  -5.33333349,          -1.,          -1.
   2986,  -5.33333349,          -1.,         -0.5
   2987,  -5.33333349,          -1.,           0.
   2988,  -5.33333349,          -1.,          0.5
   2989,  -5.33333349,          -1.,           1.
   2990,  -5.33333349,          -1.,          1.5
   2991,  -5.66666651,          -1.,         -1.5
   2992,  -5.66666651,          -1.,          -1.
   2993,  -5.66666651,          -1.,         -0.5
   2994,  -5.66666651,          -1.,           0.
   2995,  -5.66666651,          -1.,          0.5
   2996,  -5.66666651,          -1.,           1.
   2997,  -5.66666651,          -1.,          1.5
   2998,  -4.33333349,       -0.625,         -1.5
   2999,  -4.33333349,       -0.625,          -1.
   3000,  -4.33333349,       -0.625,         -0.5
   3001,  -4.33333349,       -0.625,           0.
   3002,  -4.33333349,       -0.625,          0.5
   3003,  -4.33333349,       -0.625,           1.
   3004,  -4.33333349,       -0.625,          1.5
   3005,  -4.66666651,       -0.625,         -1.5
   3006,  -4.66666651,       -0.625,          -1.
   3007,  -4.66666651,       -0.625,         -0.5
   3008,  -4.66666651,       -0.625,           0.
   3009,  -4.66666651,       -0.625,          0.5
   3010,  -4.66666651,       -0.625,           1.
   3011,  -4.66666651,       -0.625,          1.5
   3012,          -5.,       -0.625,         -1.5
   3013,          -5.,       -0.625,          -1.
   3014,          -5.,       -0.625,         -0.5
   3015,          -5.,       -0.625,           0.
   3016,          -5.,       -0.625,          0.5
   3017,          -5.,       -0.625,           1.
   3018,          -5.,       -0.625,          1.5
   3019,  -5.33333349,       -0.625,         -1.5
   3020,  -5.33333349,       -0.625,          -1.
   3021,  -5.33333349,       -0.625,         -0.5
   3022,  -5.33333349,       -0.625,           0.
   3023,  -5.33333349,       -0.625,          0.5
   3024,  -5.33333349,       -0.625,           1.
   3025,  -5.33333349,       -0.625,          1.5
   3026,  -5.66666651,       -0.625,         -1.5
   3027,  -5.66666651,       -0.625,          -1.
   3028,  -5.66666651,       -0.625,         -0.5
   3029,  -5.66666651,       -0.625,           0.
   3030,  -5.66666651,       -0.625,          0.5
   3031,  -5.66666651,       -0.625,           1.
   3032,  -5.66666651,       -0.625,          1.5
   3033,         -6.5,       -0.625,         -1.5
   3034,          -7.,       -0.625,         -1.5
   3035,         -7.5,       -0.625,         -1.5
   3036,          -8.,       -0.625,         -1.5
   3037,         -8.5,       -0.625,         -1.5
   3038,          -9.,       -0.625,         -1.5
   3039,         -9.5,       -0.625,         -1.5
   3040,         -10.,       -0.625,         -1.5
   3041,        -10.5,       -0.625,         -1.5
   3042,         -11.,       -0.625,         -1.5
   3043,        -11.5,       -0.625,         -1.5
   3044,         -12.,       -0.625,         -1.5
   3045,        -12.5,       -0.625,         -1.5
   3046,         -13.,       -0.625,         -1.5
   3047,        -13.5,       -0.625,         -1.5
   3048,         -6.5,       -0.625,          -1.
   3049,          -7.,       -0.625,          -1.
   3050,         -7.5,       -0.625,          -1.
   3051,          -8.,       -0.625,          -1.
   3052,         -8.5,       -0.625,          -1.
   3053,          -9.,       -0.625,          -1.
   3054,         -9.5,       -0.625,          -1.
   3055,         -10.,       -0.625,          -1.
   3056,        -10.5,       -0.625,          -1.
   3057,         -11.,       -0.625,          -1.
   3058,        -11.5,       -0.625,          -1.
   3059,         -12.,       -0.625,          -1.
   3060,        -12.5,       -0.625,          -1.
   3061,         -13.,       -0.625,          -1.
   3062,        -13.5,       -0.625,          -1.
   3063,         -6.5,       -0.625,         -0.5
   3064,          -7.,       -0.625,         -0.5
   3065,         -7.5,       -0.625,         -0.5
   3066,          -8.,       -0.625,         -0.5
   3067,         -8.5,       -0.625,         -0.5
   3068,          -9.,       -0.625,         -0.5
   3069,         -9.5,       -0.625,         -0.5
   3070,         -10.,       -0.625,         -0.5
   3071,        -10.5,       -0.625,         -0.5
   3072,         -11.,       -0.625,         -0.5
   3073,        -11.5,       -0.625,         -0.5
   3074,         -12.,       -0.625,         -0.5
   3075,        -12.5,       -0.625,         -0.5
   3076,         -13.,       -0.625,         -0.5
   3077,        -13.5,       -0.625,         -0.5
   3078,         -6.5,       -0.625,           0.
   3079,          -7.,       -0.625,           0.
   3080,         -7.5,       -0.625,           0.
   3081,          -8.,       -0.625,           0.
   3082,         -8.5,       -0.625,           0.
   3083,          -9.,       -0.625,           0.
   3084,         -9.5,       -0.625,           0.
   3085,         -10.,       -0.625,           0.
   3086,        -10.5,       -0.625,           0.
   3087,         -11.,       -0.625,           0.
   3088,        -11.5,       -0.625,           0.
   3089,         -12.,       -0.625,           0.
   3090,        -12.5,       -0.625,           0.
   3091,         -13.,       -0.625,           0.
   3092,        -13.5,       -0.625,           0.
   3093,         -6.5,       -0.625,          0.5
   3094,          -7.,       -0.625,          0.5
   3095,         -7.5,       -0.625,          0.5
   3096,          -8.,       -0.625,          0.5
   3097,         -8.5,       -0.625,          0.5
   3098,          -9.,       -0.625,          0.5
   3099,         -9.5,       -0.625,          0.5
   3100,         -10.,       -0.625,          0.5
   3101,        -10.5,       -0.625,          0.5
   3102,         -11.,       -0.625,          0.5
   3103,        -11.5,       -0.625,          0.5
   3104,         -12.,       -0.625,          0.5
   3105,        -12.5,       -0.625,          0.5
   3106,         -13.,       -0.625,          0.5
   3107,        -13.5,       -0.625,          0.5
   3108,         -6.5,       -0.625,           1.
   3109,          -7.,       -0.625,           1.
   3110,         -7.5,       -0.625,           1.
   3111,          -8.,       -0.625,           1.
   3112,         -8.5,       -0.625,           1.
   3113,          -9.,       -0.625,           1.
   3114,         -9.5,       -0.625,           1.
   3115,         -10.,       -0.625,           1.
   3116,        -10.5,       -0.625,           1.
   3117,         -11.,       -0.625,           1.
   3118,        -11.5,       -0.625,           1.
   3119,         -12.,       -0.625,           1.
   3120,        -12.5,       -0.625,           1.
   3121,         -13.,       -0.625,           1.
   3122,        -13.5,       -0.625,           1.
   3123,         -6.5,       -0.625,          1.5
   3124,          -7.,       -0.625,          1.5
   3125,         -7.5,       -0.625,          1.5
   3126,          -8.,       -0.625,          1.5
   3127,         -8.5,       -0.625,          1.5
   3128,          -9.,       -0.625,          1.5
   3129,         -9.5,       -0.625,          1.5
   3130,         -10.,       -0.625,          1.5
   3131,        -10.5,       -0.625,          1.5
   3132,         -11.,       -0.625,          1.5
   3133,        -11.5,       -0.625,          1.5
   3134,         -12.,       -0.625,          1.5
   3135,        -12.5,       -0.625,          1.5
   3136,         -13.,       -0.625,          1.5
   3137,        -13.5,       -0.625,          1.5
   3138,         -6.5,          -1.,         -1.5
   3139,          -7.,          -1.,         -1.5
   3140,         -7.5,          -1.,         -1.5
   3141,          -8.,          -1.,         -1.5
   3142,         -8.5,          -1.,         -1.5
   3143,          -9.,          -1.,         -1.5
   3144,         -9.5,          -1.,         -1.5
   3145,         -10.,          -1.,         -1.5
   3146,        -10.5,          -1.,         -1.5
   3147,         -11.,          -1.,         -1.5
   3148,        -11.5,          -1.,         -1.5
   3149,         -12.,          -1.,         -1.5
   3150,        -12.5,          -1.,         -1.5
   3151,         -13.,          -1.,         -1.5
   3152,        -13.5,          -1.,         -1.5
   3153,         -6.5,          -1.,          -1.
   3154,          -7.,          -1.,          -1.
   3155,         -7.5,          -1.,          -1.
   3156,          -8.,          -1.,          -1.
   3157,         -8.5,          -1.,          -1.
   3158,          -9.,          -1.,          -1.
   3159,         -9.5,          -1.,          -1.
   3160,         -10.,          -1.,          -1.
   3161,        -10.5,          -1.,          -1.
   3162,         -11.,          -1.,          -1.
   3163,        -11.5,          -1.,          -1.
   3164,         -12.,          -1.,          -1.
   3165,        -12.5,          -1.,          -1.
   3166,         -13.,          -1.,          -1.
   3167,        -13.5,          -1.,          -1.
   3168,         -6.5,          -1.,         -0.5
   3169,          -7.,          -1.,         -0.5
   3170,         -7.5,          -1.,         -0.5
   3171,          -8.,          -1.,         -0.5
   3172,         -8.5,          -1.,         -0.5
   3173,          -9.,          -1.,         -0.5
   3174,         -9.5,          -1.,         -0.5
   3175,         -10.,          -1.,         -0.5
   3176,        -10.5,          -1.,         -0.5
   3177,         -11.,          -1.,         -0.5
   3178,        -11.5,          -1.,         -0.5
   3179,         -12.,          -1.,         -0.5
   3180,        -12.5,          -1.,         -0.5
   3181,         -13.,          -1.,         -0.5
   3182,        -13.5,          -1.,         -0.5
   3183,         -6.5,          -1.,           0.
   3184,          -7.,          -1.,           0.
   3185,         -7.5,          -1.,           0.
   3186,          -8.,          -1.,           0.
   3187,         -8.5,          -1.,           0.
   3188,          -9.,          -1.,           0.
   3189,         -9.5,          -1.,           0.
   3190,         -10.,          -1.,           0.
   3191,        -10.5,          -1.,           0.
   3192,         -11.,          -1.,           0.
   3193,        -11.5,          -1.,           0.
   3194,         -12.,          -1.,           0.
   3195,        -12.5,          -1.,           0.
   3196,         -13.,          -1.,           0.
   3197,        -13.5,          -1.,           0.
   3198,         -6.5,          -1.,          0.5
   3199,          -7.,          -1.,          0.5
   3200,         -7.5,          -1.,          0.5
   3201,          -8.,          -1.,          0.5
   3202,         -8.5,          -1.,          0.5
   3203,          -9.,          -1.,          0.5
   3204,         -9.5,          -1.,          0.5
   3205,         -10.,          -1.,          0.5
   3206,        -10.5,          -1.,          0.5
   3207,         -11.,          -1.,          0.5
   3208,        -11.5,          -1.,          0.5
   3209,         -12.,          -1.,          0.5
   3210,        -12.5,          -1.,          0.5
   3211,         -13.,          -1.,          0.5
   3212,        -13.5,          -1.,          0.5
   3213,         -6.5,          -1.,           1.
   3214,          -7.,          -1.,           1.
   3215,         -7.5,          -1.,           1.
   3216,          -8.,          -1.,           1.
   3217,         -8.5,          -1.,           1.
   3218,          -9.,          -1.,           1.
   3219,         -9.5,          -1.,           1.
   3220,         -10.,          -1.,           1.
   3221,        -10.5,          -1.,           1.
   3222,         -11.,          -1.,           1.
   3223,        -11.5,          -1.,           1.
   3224,         -12.,          -1.,           1.
   3225,        -12.5,          -1.,           1.
   3226,         -13.,          -1.,           1.
   3227,        -13.5,          -1.,           1.
   3228,         -6.5,          -1.,          1.5
   3229,          -7.,          -1.,          1.5
   3230,         -7.5,          -1.,          1.5
   3231,          -8.,          -1.,          1.5
   3232,         -8.5,          -1.,          1.5
   3233,          -9.,          -1.,          1.5
   3234,         -9.5,          -1.,          1.5
   3235,         -10.,          -1.,          1.5
   3236,        -10.5,          -1.,          1.5
   3237,         -11.,          -1.,          1.5
   3238,        -11.5,          -1.,          1.5
   3239,         -12.,          -1.,          1.5
   3240,        -12.5,          -1.,          1.5
   3241,         -13.,          -1.,          1.5
   3242,        -13.5,          -1.,          1.5
   3243,         -6.5,       -1.375,         -1.5
   3244,          -7.,       -1.375,         -1.5
   3245,         -7.5,       -1.375,         -1.5
   3246,          -8.,       -1.375,         -1.5
   3247,         -8.5,       -1.375,         -1.5
   3248,          -9.,       -1.375,         -1.5
   3249,         -9.5,       -1.375,         -1.5
   3250,         -10.,       -1.375,         -1.5
   3251,        -10.5,       -1.375,         -1.5
   3252,         -11.,       -1.375,         -1.5
   3253,        -11.5,       -1.375,         -1.5
   3254,         -12.,       -1.375,         -1.5
   3255,        -12.5,       -1.375,         -1.5
   3256,         -13.,       -1.375,         -1.5
   3257,        -13.5,       -1.375,         -1.5
   3258,         -6.5,       -1.375,          -1.
   3259,          -7.,       -1.375,          -1.
   3260,         -7.5,       -1.375,          -1.
   3261,          -8.,       -1.375,          -1.
   3262,         -8.5,       -1.375,          -1.
   3263,          -9.,       -1.375,          -1.
   3264,         -9.5,       -1.375,          -1.
   3265,         -10.,       -1.375,          -1.
   3266,        -10.5,       -1.375,          -1.
   3267,         -11.,       -1.375,          -1.
   3268,        -11.5,       -1.375,          -1.
   3269,         -12.,       -1.375,          -1.
   3270,        -12.5,       -1.375,          -1.
   3271,         -13.,       -1.375,          -1.
   3272,        -13.5,       -1.375,          -1.
   3273,         -6.5,       -1.375,         -0.5
   3274,          -7.,       -1.375,         -0.5
   3275,         -7.5,       -1.375,         -0.5
   3276,          -8.,       -1.375,         -0.5
   3277,         -8.5,       -1.375,         -0.5
   3278,          -9.,       -1.375,         -0.5
   3279,         -9.5,       -1.375,         -0.5
   3280,         -10.,       -1.375,         -0.5
   3281,        -10.5,       -1.375,         -0.5
   3282,         -11.,       -1.375,         -0.5
   3283,        -11.5,       -1.375,         -0.5
   3284,         -12.,       -1.375,         -0.5
   3285,        -12.5,       -1.375,         -0.5
   3286,         -13.,       -1.375,         -0.5
   3287,        -13.5,       -1.375,         -0.5
   3288,         -6.5,       -1.375,           0.
   3289,          -7.,       -1.375,           0.
   3290,         -7.5,       -1.375,           0.
   3291,          -8.,       -1.375,           0.
   3292,         -8.5,       -1.375,           0.
   3293,          -9.,       -1.375,           0.
   3294,         -9.5,       -1.375,           0.
   3295,         -10.,       -1.375,           0.
   3296,        -10.5,       -1.375,           0.
   3297,         -11.,       -1.375,           0.
   3298,        -11.5,       -1.375,           0.
   3299,         -12.,       -1.375,           0.
   3300,        -12.5,       -1.375,           0.
   3301,         -13.,       -1.375,           0.
   3302,        -13.5,       -1.375,           0.
   3303,         -6.5,       -1.375,          0.5
   3304,          -7.,       -1.375,          0.5
   3305,         -7.5,       -1.375,          0.5
   3306,          -8.,       -1.375,          0.5
   3307,         -8.5,       -1.375,          0.5
   3308,          -9.,       -1.375,          0.5
   3309,         -9.5,       -1.375,          0.5
   3310,         -10.,       -1.375,          0.5
   3311,        -10.5,       -1.375,          0.5
   3312,         -11.,       -1.375,          0.5
   3313,        -11.5,       -1.375,          0.5
   3314,         -12.,       -1.375,          0.5
   3315,        -12.5,       -1.375,          0.5
   3316,         -13.,       -1.375,          0.5
   3317,        -13.5,       -1.375,          0.5
   3318,         -6.5,       -1.375,           1.
   3319,          -7.,       -1.375,           1.
   3320,         -7.5,       -1.375,           1.
   3321,          -8.,       -1.375,           1.
   3322,         -8.5,       -1.375,           1.
   3323,          -9.,       -1.375,           1.
   3324,         -9.5,       -1.375,           1.
   3325,         -10.,       -1.375,           1.
   3326,        -10.5,       -1.375,           1.
   3327,         -11.,       -1.375,           1.
   3328,        -11.5,       -1.375,           1.
   3329,         -12.,       -1.375,           1.
   3330,        -12.5,       -1.375,           1.
   3331,         -13.,       -1.375,           1.
   3332,        -13.5,       -1.375,           1.
   3333,         -6.5,       -1.375,          1.5
   3334,          -7.,       -1.375,          1.5
   3335,         -7.5,       -1.375,          1.5
   3336,          -8.,       -1.375,          1.5
   3337,         -8.5,       -1.375,          1.5
   3338,          -9.,       -1.375,          1.5
   3339,         -9.5,       -1.375,          1.5
   3340,         -10.,       -1.375,          1.5
   3341,        -10.5,       -1.375,          1.5
   3342,         -11.,       -1.375,          1.5
   3343,        -11.5,       -1.375,          1.5
   3344,         -12.,       -1.375,          1.5
   3345,        -12.5,       -1.375,          1.5
   3346,         -13.,       -1.375,          1.5
   3347,        -13.5,       -1.375,          1.5
   3348,        -15.5,  0.275000006,          2.5
   3349,        -15.5,  0.275000006,           3.
   3350,        -15.5,  0.275000006,          3.5
   3351,        -15.5,  0.275000006,           4.
   3352,        -15.5,  0.275000006,          4.5
   3353,        -15.5,  0.275000006,           5.
   3354,        -15.5,  0.275000006,          5.5
   3355,        -15.5,  0.800000012,          2.5
   3356,        -15.5,  0.800000012,           3.
   3357,        -15.5,  0.800000012,          3.5
   3358,        -15.5,  0.800000012,           4.
   3359,        -15.5,  0.800000012,          4.5
   3360,        -15.5,  0.800000012,           5.
   3361,        -15.5,  0.800000012,          5.5
   3362,        -15.5,   1.32500005,          2.5
   3363,        -15.5,   1.32500005,           3.
   3364,        -15.5,   1.32500005,          3.5
   3365,        -15.5,   1.32500005,           4.
   3366,        -15.5,   1.32500005,          4.5
   3367,        -15.5,   1.32500005,           5.
   3368,        -15.5,   1.32500005,          5.5
   3369,        -15.5,   1.85000002,          2.5
   3370,        -15.5,   1.85000002,           3.
   3371,        -15.5,   1.85000002,          3.5
   3372,        -15.5,   1.85000002,           4.
   3373,        -15.5,   1.85000002,          4.5
   3374,        -15.5,   1.85000002,           5.
   3375,        -15.5,   1.85000002,          5.5
   3376,        -15.5,        2.375,          2.5
   3377,        -15.5,        2.375,           3.
   3378,        -15.5,        2.375,          3.5
   3379,        -15.5,        2.375,           4.
   3380,        -15.5,        2.375,          4.5
   3381,        -15.5,        2.375,           5.
   3382,        -15.5,        2.375,          5.5
   3383,        -15.5,    2.9000001,          2.5
   3384,        -15.5,    2.9000001,           3.
   3385,        -15.5,    2.9000001,          3.5
   3386,        -15.5,    2.9000001,           4.
   3387,        -15.5,    2.9000001,          4.5
   3388,        -15.5,    2.9000001,           5.
   3389,        -15.5,    2.9000001,          5.5
   3390,        -15.5,   3.42499995,          2.5
   3391,        -15.5,   3.42499995,           3.
   3392,        -15.5,   3.42499995,          3.5
   3393,        -15.5,   3.42499995,           4.
   3394,        -15.5,   3.42499995,          4.5
   3395,        -15.5,   3.42499995,           5.
   3396,        -15.5,   3.42499995,          5.5
   3397,        -15.5,   3.95000005,          2.5
   3398,        -15.5,   3.95000005,           3.
   3399,        -15.5,   3.95000005,          3.5
   3400,        -15.5,   3.95000005,           4.
   3401,        -15.5,   3.95000005,          4.5
   3402,        -15.5,   3.95000005,           5.
   3403,        -15.5,   3.95000005,          5.5
   3404,        -15.5,    4.4749999,          2.5
   3405,        -15.5,    4.4749999,           3.
   3406,        -15.5,    4.4749999,          3.5
   3407,        -15.5,    4.4749999,           4.
   3408,        -15.5,    4.4749999,          4.5
   3409,        -15.5,    4.4749999,           5.
   3410,        -15.5,    4.4749999,          5.5
   3411,         -15.,  0.275000006,          2.5
   3412,         -15.,  0.275000006,           3.
   3413,         -15.,  0.275000006,          3.5
   3414,         -15.,  0.275000006,           4.
   3415,         -15.,  0.275000006,          4.5
   3416,         -15.,  0.275000006,           5.
   3417,         -15.,  0.275000006,          5.5
   3418,         -15.,  0.800000012,          2.5
   3419,         -15.,  0.800000012,           3.
   3420,         -15.,  0.800000012,          3.5
   3421,         -15.,  0.800000012,           4.
   3422,         -15.,  0.800000012,          4.5
   3423,         -15.,  0.800000012,           5.
   3424,         -15.,  0.800000012,          5.5
   3425,         -15.,   1.32500005,          2.5
   3426,         -15.,   1.32500005,           3.
   3427,         -15.,   1.32500005,          3.5
   3428,         -15.,   1.32500005,           4.
   3429,         -15.,   1.32500005,          4.5
   3430,         -15.,   1.32500005,           5.
   3431,         -15.,   1.32500005,          5.5
   3432,         -15.,   1.85000002,          2.5
   3433,         -15.,   1.85000002,           3.
   3434,         -15.,   1.85000002,          3.5
   3435,         -15.,   1.85000002,           4.
   3436,         -15.,   1.85000002,          4.5
   3437,         -15.,   1.85000002,           5.
   3438,         -15.,   1.85000002,          5.5
   3439,         -15.,        2.375,          2.5
   3440,         -15.,        2.375,           3.
   3441,         -15.,        2.375,          3.5
   3442,         -15.,        2.375,           4.
   3443,         -15.,        2.375,          4.5
   3444,         -15.,        2.375,           5.
   3445,         -15.,        2.375,          5.5
   3446,         -15.,    2.9000001,          2.5
   3447,         -15.,    2.9000001,           3.
   3448,         -15.,    2.9000001,          3.5
   3449,         -15.,    2.9000001,           4.
   3450,         -15.,    2.9000001,          4.5
   3451,         -15.,    2.9000001,           5.
   3452,         -15.,    2.9000001,          5.5
   3453,         -15.,   3.42499995,          2.5
   3454,         -15.,   3.42499995,           3.
   3455,         -15.,   3.42499995,          3.5
   3456,         -15.,   3.42499995,           4.
   3457,         -15.,   3.42499995,          4.5
   3458,         -15.,   3.42499995,           5.
   3459,         -15.,   3.42499995,          5.5
   3460,         -15.,   3.95000005,          2.5
   3461,         -15.,   3.95000005,           3.
   3462,         -15.,   3.95000005,          3.5
   3463,         -15.,   3.95000005,           4.
   3464,         -15.,   3.95000005,          4.5
   3465,         -15.,   3.95000005,           5.
   3466,         -15.,   3.95000005,          5.5
   3467,         -15.,    4.4749999,          2.5
   3468,         -15.,    4.4749999,           3.
   3469,         -15.,    4.4749999,          3.5
   3470,         -15.,    4.4749999,           4.
   3471,         -15.,    4.4749999,          4.5
   3472,         -15.,    4.4749999,           5.
   3473,         -15.,    4.4749999,          5.5
   3474,        -14.5,  0.275000006,          2.5
   3475,        -14.5,  0.275000006,           3.
   3476,        -14.5,  0.275000006,          3.5
   3477,        -14.5,  0.275000006,           4.
   3478,        -14.5,  0.275000006,          4.5
   3479,        -14.5,  0.275000006,           5.
   3480,        -14.5,  0.275000006,          5.5
   3481,        -14.5,  0.800000012,          2.5
   3482,        -14.5,  0.800000012,           3.
   3483,        -14.5,  0.800000012,          3.5
   3484,        -14.5,  0.800000012,           4.
   3485,        -14.5,  0.800000012,          4.5
   3486,        -14.5,  0.800000012,           5.
   3487,        -14.5,  0.800000012,          5.5
   3488,        -14.5,   1.32500005,          2.5
   3489,        -14.5,   1.32500005,           3.
   3490,        -14.5,   1.32500005,          3.5
   3491,        -14.5,   1.32500005,           4.
   3492,        -14.5,   1.32500005,          4.5
   3493,        -14.5,   1.32500005,           5.
   3494,        -14.5,   1.32500005,          5.5
   3495,        -14.5,   1.85000002,          2.5
   3496,        -14.5,   1.85000002,           3.
   3497,        -14.5,   1.85000002,          3.5
   3498,        -14.5,   1.85000002,           4.
   3499,        -14.5,   1.85000002,          4.5
   3500,        -14.5,   1.85000002,           5.
   3501,        -14.5,   1.85000002,          5.5
   3502,        -14.5,        2.375,          2.5
   3503,        -14.5,        2.375,           3.
   3504,        -14.5,        2.375,          3.5
   3505,        -14.5,        2.375,           4.
   3506,        -14.5,        2.375,          4.5
   3507,        -14.5,        2.375,           5.
   3508,        -14.5,        2.375,          5.5
   3509,        -14.5,    2.9000001,          2.5
   3510,        -14.5,    2.9000001,           3.
   3511,        -14.5,    2.9000001,          3.5
   3512,        -14.5,    2.9000001,           4.
   3513,        -14.5,    2.9000001,          4.5
   3514,        -14.5,    2.9000001,           5.
   3515,        -14.5,    2.9000001,          5.5
   3516,        -14.5,   3.42499995,          2.5
   3517,        -14.5,   3.42499995,           3.
   3518,        -14.5,   3.42499995,          3.5
   3519,        -14.5,   3.42499995,           4.
   3520,        -14.5,   3.42499995,          4.5
   3521,        -14.5,   3.42499995,           5.
   3522,        -14.5,   3.42499995,          5.5
   3523,        -14.5,   3.95000005,          2.5
   3524,        -14.5,   3.95000005,           3.
   3525,        -14.5,   3.95000005,          3.5
   3526,        -14.5,   3.95000005,           4.
   3527,        -14.5,   3.95000005,          4.5
   3528,        -14.5,   3.95000005,           5.
   3529,        -14.5,   3.95000005,          5.5
   3530,        -14.5,    4.4749999,          2.5
   3531,        -14.5,    4.4749999,           3.
   3532,        -14.5,    4.4749999,          3.5
   3533,        -14.5,    4.4749999,           4.
   3534,        -14.5,    4.4749999,          4.5
   3535,        -14.5,    4.4749999,           5.
   3536,        -14.5,    4.4749999,          5.5
   3537,        -14.5,       -0.625,          2.5
   3538,         -15.,       -0.625,          2.5
   3539,        -15.5,       -0.625,          2.5
   3540,        -14.5,       -0.625,           3.
   3541,         -15.,       -0.625,           3.
   3542,        -15.5,       -0.625,           3.
   3543,        -14.5,       -0.625,          3.5
   3544,         -15.,       -0.625,          3.5
   3545,        -15.5,       -0.625,          3.5
   3546,        -14.5,       -0.625,           4.
   3547,         -15.,       -0.625,           4.
   3548,        -15.5,       -0.625,           4.
   3549,        -14.5,       -0.625,          4.5
   3550,         -15.,       -0.625,          4.5
   3551,        -15.5,       -0.625,          4.5
   3552,        -14.5,       -0.625,           5.
   3553,         -15.,       -0.625,           5.
   3554,        -15.5,       -0.625,           5.
   3555,        -14.5,       -0.625,          5.5
   3556,         -15.,       -0.625,          5.5
   3557,        -15.5,       -0.625,          5.5
   3558,        -14.5,          -1.,          2.5
   3559,         -15.,          -1.,          2.5
   3560,        -15.5,          -1.,          2.5
   3561,        -14.5,          -1.,           3.
   3562,         -15.,          -1.,           3.
   3563,        -15.5,          -1.,           3.
   3564,        -14.5,          -1.,          3.5
   3565,         -15.,          -1.,          3.5
   3566,        -15.5,          -1.,          3.5
   3567,        -14.5,          -1.,           4.
   3568,         -15.,          -1.,           4.
   3569,        -15.5,          -1.,           4.
   3570,        -14.5,          -1.,          4.5
   3571,         -15.,          -1.,          4.5
   3572,        -15.5,          -1.,          4.5
   3573,        -14.5,          -1.,           5.
   3574,         -15.,          -1.,           5.
   3575,        -15.5,          -1.,           5.
   3576,        -14.5,          -1.,          5.5
   3577,         -15.,          -1.,          5.5
   3578,        -15.5,          -1.,          5.5
   3579,        -14.5,       -1.375,          2.5
   3580,         -15.,       -1.375,          2.5
   3581,        -15.5,       -1.375,          2.5
   3582,        -14.5,       -1.375,           3.
   3583,         -15.,       -1.375,           3.
   3584,        -15.5,       -1.375,           3.
   3585,        -14.5,       -1.375,          3.5
   3586,         -15.,       -1.375,          3.5
   3587,        -15.5,       -1.375,          3.5
   3588,        -14.5,       -1.375,           4.
   3589,         -15.,       -1.375,           4.
   3590,        -15.5,       -1.375,           4.
   3591,        -14.5,       -1.375,          4.5
   3592,         -15.,       -1.375,          4.5
   3593,        -15.5,       -1.375,          4.5
   3594,        -14.5,       -1.375,           5.
   3595,         -15.,       -1.375,           5.
   3596,        -15.5,       -1.375,           5.
   3597,        -14.5,       -1.375,          5.5
   3598,         -15.,       -1.375,          5.5
   3599,        -15.5,       -1.375,          5.5
   3600,        -15.5,       -1.375,         -1.5
   3601,        -15.5,       -1.375,          -1.
   3602,        -15.5,       -1.375,         -0.5
   3603,        -15.5,       -1.375,           0.
   3604,        -15.5,       -1.375,          0.5
   3605,        -15.5,       -1.375,           1.
   3606,        -15.5,       -1.375,          1.5
   3607,        -15.5,          -1.,         -1.5
   3608,        -15.5,          -1.,          -1.
   3609,        -15.5,          -1.,         -0.5
   3610,        -15.5,          -1.,           0.
   3611,        -15.5,          -1.,          0.5
   3612,        -15.5,          -1.,           1.
   3613,        -15.5,          -1.,          1.5
   3614,        -15.5,       -0.625,         -1.5
   3615,        -15.5,       -0.625,          -1.
   3616,        -15.5,       -0.625,         -0.5
   3617,        -15.5,       -0.625,           0.
   3618,        -15.5,       -0.625,          0.5
   3619,        -15.5,       -0.625,           1.
   3620,        -15.5,       -0.625,          1.5
   3621,         -15.,       -1.375,         -1.5
   3622,         -15.,       -1.375,          -1.
   3623,         -15.,       -1.375,         -0.5
   3624,         -15.,       -1.375,           0.
   3625,         -15.,       -1.375,          0.5
   3626,         -15.,       -1.375,           1.
   3627,         -15.,       -1.375,          1.5
   3628,         -15.,          -1.,         -1.5
   3629,         -15.,          -1.,          -1.
   3630,         -15.,          -1.,         -0.5
   3631,         -15.,          -1.,           0.
   3632,         -15.,          -1.,          0.5
   3633,         -15.,          -1.,           1.
   3634,         -15.,          -1.,          1.5
   3635,         -15.,       -0.625,         -1.5
   3636,         -15.,       -0.625,          -1.
   3637,         -15.,       -0.625,         -0.5
   3638,         -15.,       -0.625,           0.
   3639,         -15.,       -0.625,          0.5
   3640,         -15.,       -0.625,           1.
   3641,         -15.,       -0.625,          1.5
   3642,        -14.5,       -1.375,         -1.5
   3643,        -14.5,       -1.375,          -1.
   3644,        -14.5,       -1.375,         -0.5
   3645,        -14.5,       -1.375,           0.
   3646,        -14.5,       -1.375,          0.5
   3647,        -14.5,       -1.375,           1.
   3648,        -14.5,       -1.375,          1.5
   3649,        -14.5,          -1.,         -1.5
   3650,        -14.5,          -1.,          -1.
   3651,        -14.5,          -1.,         -0.5
   3652,        -14.5,          -1.,           0.
   3653,        -14.5,          -1.,          0.5
   3654,        -14.5,          -1.,           1.
   3655,        -14.5,          -1.,          1.5
   3656,        -14.5,       -0.625,         -1.5
   3657,        -14.5,       -0.625,          -1.
   3658,        -14.5,       -0.625,         -0.5
   3659,        -14.5,       -0.625,           0.
   3660,        -14.5,       -0.625,          0.5
   3661,        -14.5,       -0.625,           1.
   3662,        -14.5,       -0.625,          1.5
   3663,        -15.5,       -1.375,         -5.5
   3664,        -15.5,       -1.375,          -5.
   3665,        -15.5,       -1.375,         -4.5
   3666,        -15.5,       -1.375,          -4.
   3667,        -15.5,       -1.375,         -3.5
   3668,        -15.5,       -1.375,          -3.
   3669,        -15.5,       -1.375,         -2.5
   3670,        -15.5,          -1.,         -5.5
   3671,        -15.5,          -1.,          -5.
   3672,        -15.5,          -1.,         -4.5
   3673,        -15.5,          -1.,          -4.
   3674,        -15.5,          -1.,         -3.5
   3675,        -15.5,          -1.,          -3.
   3676,        -15.5,          -1.,         -2.5
   3677,        -15.5,       -0.625,         -5.5
   3678,        -15.5,       -0.625,          -5.
   3679,        -15.5,       -0.625,         -4.5
   3680,        -15.5,       -0.625,          -4.
   3681,        -15.5,       -0.625,         -3.5
   3682,        -15.5,       -0.625,          -3.
   3683,        -15.5,       -0.625,         -2.5
   3684,         -15.,       -1.375,         -5.5
   3685,         -15.,       -1.375,          -5.
   3686,         -15.,       -1.375,         -4.5
   3687,         -15.,       -1.375,          -4.
   3688,         -15.,       -1.375,         -3.5
   3689,         -15.,       -1.375,          -3.
   3690,         -15.,       -1.375,         -2.5
   3691,         -15.,          -1.,         -5.5
   3692,         -15.,          -1.,          -5.
   3693,         -15.,          -1.,         -4.5
   3694,         -15.,          -1.,          -4.
   3695,         -15.,          -1.,         -3.5
   3696,         -15.,          -1.,          -3.
   3697,         -15.,          -1.,         -2.5
   3698,         -15.,       -0.625,         -5.5
   3699,         -15.,       -0.625,          -5.
   3700,         -15.,       -0.625,         -4.5
   3701,         -15.,       -0.625,          -4.
   3702,         -15.,       -0.625,         -3.5
   3703,         -15.,       -0.625,          -3.
   3704,         -15.,       -0.625,         -2.5
   3705,        -14.5,       -1.375,         -5.5
   3706,        -14.5,       -1.375,          -5.
   3707,        -14.5,       -1.375,         -4.5
   3708,        -14.5,       -1.375,          -4.
   3709,        -14.5,       -1.375,         -3.5
   3710,        -14.5,       -1.375,          -3.
   3711,        -14.5,       -1.375,         -2.5
   3712,        -14.5,          -1.,         -5.5
   3713,        -14.5,          -1.,          -5.
   3714,        -14.5,          -1.,         -4.5
   3715,        -14.5,          -1.,          -4.
   3716,        -14.5,          -1.,         -3.5
   3717,        -14.5,          -1.,          -3.
   3718,        -14.5,          -1.,         -2.5
   3719,        -14.5,       -0.625,         -5.5
   3720,        -14.5,       -0.625,          -5.
   3721,        -14.5,       -0.625,         -4.5
   3722,        -14.5,       -0.625,          -4.
   3723,        -14.5,       -0.625,         -3.5
   3724,        -14.5,       -0.625,          -3.
   3725,        -14.5,       -0.625,         -2.5
   3726,        -14.5,  0.275000006,         -1.5
   3727,        -14.5,  0.800000012,         -1.5
   3728,        -14.5,   1.32500005,         -1.5
   3729,        -14.5,   1.85000002,         -1.5
   3730,        -14.5,        2.375,         -1.5
   3731,        -14.5,    2.9000001,         -1.5
   3732,        -14.5,   3.42499995,         -1.5
   3733,        -14.5,   3.95000005,         -1.5
   3734,        -14.5,    4.4749999,         -1.5
   3735,        -14.5,  0.275000006,          -1.
   3736,        -14.5,  0.800000012,          -1.
   3737,        -14.5,   1.32500005,          -1.
   3738,        -14.5,   1.85000002,          -1.
   3739,        -14.5,        2.375,          -1.
   3740,        -14.5,    2.9000001,          -1.
   3741,        -14.5,   3.42499995,          -1.
   3742,        -14.5,   3.95000005,          -1.
   3743,        -14.5,    4.4749999,          -1.
   3744,        -14.5,  0.275000006,         -0.5
   3745,        -14.5,  0.800000012,         -0.5
   3746,        -14.5,   1.32500005,         -0.5
   3747,        -14.5,   1.85000002,         -0.5
   3748,        -14.5,        2.375,         -0.5
   3749,        -14.5,    2.9000001,         -0.5
   3750,        -14.5,   3.42499995,         -0.5
   3751,        -14.5,   3.95000005,         -0.5
   3752,        -14.5,    4.4749999,         -0.5
   3753,        -14.5,  0.275000006,           0.
   3754,        -14.5,  0.800000012,           0.
   3755,        -14.5,   1.32500005,           0.
   3756,        -14.5,   1.85000002,           0.
   3757,        -14.5,        2.375,           0.
   3758,        -14.5,    2.9000001,           0.
   3759,        -14.5,   3.42499995,           0.
   3760,        -14.5,   3.95000005,           0.
   3761,        -14.5,    4.4749999,           0.
   3762,        -14.5,  0.275000006,          0.5
   3763,        -14.5,  0.800000012,          0.5
   3764,        -14.5,   1.32500005,          0.5
   3765,        -14.5,   1.85000002,          0.5
   3766,        -14.5,        2.375,          0.5
   3767,        -14.5,    2.9000001,          0.5
   3768,        -14.5,   3.42499995,          0.5
   3769,        -14.5,   3.95000005,          0.5
   3770,        -14.5,    4.4749999,          0.5
   3771,        -14.5,  0.275000006,           1.
   3772,        -14.5,  0.800000012,           1.
   3773,        -14.5,   1.32500005,           1.
   3774,        -14.5,   1.85000002,           1.
   3775,        -14.5,        2.375,           1.
   3776,        -14.5,    2.9000001,           1.
   3777,        -14.5,   3.42499995,           1.
   3778,        -14.5,   3.95000005,           1.
   3779,        -14.5,    4.4749999,           1.
   3780,        -14.5,  0.275000006,          1.5
   3781,        -14.5,  0.800000012,          1.5
   3782,        -14.5,   1.32500005,          1.5
   3783,        -14.5,   1.85000002,          1.5
   3784,        -14.5,        2.375,          1.5
   3785,        -14.5,    2.9000001,          1.5
   3786,        -14.5,   3.42499995,          1.5
   3787,        -14.5,   3.95000005,          1.5
   3788,        -14.5,    4.4749999,          1.5
   3789,         -15.,  0.275000006,         -1.5
   3790,         -15.,  0.800000012,         -1.5
   3791,         -15.,   1.32500005,         -1.5
   3792,         -15.,   1.85000002,         -1.5
   3793,         -15.,        2.375,         -1.5
   3794,         -15.,    2.9000001,         -1.5
   3795,         -15.,   3.42499995,         -1.5
   3796,         -15.,   3.95000005,         -1.5
   3797,         -15.,    4.4749999,         -1.5
   3798,         -15.,  0.275000006,          -1.
   3799,         -15.,  0.800000012,          -1.
   3800,         -15.,   1.32500005,          -1.
   3801,         -15.,   1.85000002,          -1.
   3802,         -15.,        2.375,          -1.
   3803,         -15.,    2.9000001,          -1.
   3804,         -15.,   3.42499995,          -1.
   3805,         -15.,   3.95000005,          -1.
   3806,         -15.,    4.4749999,          -1.
   3807,         -15.,  0.275000006,         -0.5
   3808,         -15.,  0.800000012,         -0.5
   3809,         -15.,   1.32500005,         -0.5
   3810,         -15.,   1.85000002,         -0.5
   3811,         -15.,        2.375,         -0.5
   3812,         -15.,    2.9000001,         -0.5
   3813,         -15.,   3.42499995,         -0.5
   3814,         -15.,   3.95000005,         -0.5
   3815,         -15.,    4.4749999,         -0.5
   3816,         -15.,  0.275000006,           0.
   3817,         -15.,  0.800000012,           0.
   3818,         -15.,   1.32500005,           0.
   3819,         -15.,   1.85000002,           0.
   3820,         -15.,        2.375,           0.
   3821,         -15.,    2.9000001,           0.
   3822,         -15.,   3.42499995,           0.
   3823,         -15.,   3.95000005,           0.
   3824,         -15.,    4.4749999,           0.
   3825,         -15.,  0.275000006,          0.5
   3826,         -15.,  0.800000012,          0.5
   3827,         -15.,   1.32500005,          0.5
   3828,         -15.,   1.85000002,          0.5
   3829,         -15.,        2.375,          0.5
   3830,         -15.,    2.9000001,          0.5
   3831,         -15.,   3.42499995,          0.5
   3832,         -15.,   3.95000005,          0.5
   3833,         -15.,    4.4749999,          0.5
   3834,         -15.,  0.275000006,           1.
   3835,         -15.,  0.800000012,           1.
   3836,         -15.,   1.32500005,           1.
   3837,         -15.,   1.85000002,           1.
   3838,         -15.,        2.375,           1.
   3839,         -15.,    2.9000001,           1.
   3840,         -15.,   3.42499995,           1.
   3841,         -15.,   3.95000005,           1.
   3842,         -15.,    4.4749999,           1.
   3843,         -15.,  0.275000006,          1.5
   3844,         -15.,  0.800000012,          1.5
   3845,         -15.,   1.32500005,          1.5
   3846,         -15.,   1.85000002,          1.5
   3847,         -15.,        2.375,          1.5
   3848,         -15.,    2.9000001,          1.5
   3849,         -15.,   3.42499995,          1.5
   3850,         -15.,   3.95000005,          1.5
   3851,         -15.,    4.4749999,          1.5
   3852,        -15.5,  0.275000006,         -1.5
   3853,        -15.5,  0.800000012,         -1.5
   3854,        -15.5,   1.32500005,         -1.5
   3855,        -15.5,   1.85000002,         -1.5
   3856,        -15.5,        2.375,         -1.5
   3857,        -15.5,    2.9000001,         -1.5
   3858,        -15.5,   3.42499995,         -1.5
   3859,        -15.5,   3.95000005,         -1.5
   3860,        -15.5,    4.4749999,         -1.5
   3861,        -15.5,  0.275000006,          -1.
   3862,        -15.5,  0.800000012,          -1.
   3863,        -15.5,   1.32500005,          -1.
   3864,        -15.5,   1.85000002,          -1.
   3865,        -15.5,        2.375,          -1.
   3866,        -15.5,    2.9000001,          -1.
   3867,        -15.5,   3.42499995,          -1.
   3868,        -15.5,   3.95000005,          -1.
   3869,        -15.5,    4.4749999,          -1.
   3870,        -15.5,  0.275000006,         -0.5
   3871,        -15.5,  0.800000012,         -0.5
   3872,        -15.5,   1.32500005,         -0.5
   3873,        -15.5,   1.85000002,         -0.5
   3874,        -15.5,        2.375,         -0.5
   3875,        -15.5,    2.9000001,         -0.5
   3876,        -15.5,   3.42499995,         -0.5
   3877,        -15.5,   3.95000005,         -0.5
   3878,        -15.5,    4.4749999,         -0.5
   3879,        -15.5,  0.275000006,           0.
   3880,        -15.5,  0.800000012,           0.
   3881,        -15.5,   1.32500005,           0.
   3882,        -15.5,   1.85000002,           0.
   3883,        -15.5,        2.375,           0.
   3884,        -15.5,    2.9000001,           0.
   3885,        -15.5,   3.42499995,           0.
   3886,        -15.5,   3.95000005,           0.
   3887,        -15.5,    4.4749999,           0.
   3888,        -15.5,  0.275000006,          0.5
   3889,        -15.5,  0.800000012,          0.5
   3890,        -15.5,   1.32500005,          0.5
   3891,        -15.5,   1.85000002,          0.5
   3892,        -15.5,        2.375,          0.5
   3893,        -15.5,    2.9000001,          0.5
   3894,        -15.5,   3.42499995,          0.5
   3895,        -15.5,   3.95000005,          0.5
   3896,        -15.5,    4.4749999,          0.5
   3897,        -15.5,  0.275000006,           1.
   3898,        -15.5,  0.800000012,           1.
   3899,        -15.5,   1.32500005,           1.
   3900,        -15.5,   1.85000002,           1.
   3901,        -15.5,        2.375,           1.
   3902,        -15.5,    2.9000001,           1.
   3903,        -15.5,   3.42499995,           1.
   3904,        -15.5,   3.95000005,           1.
   3905,        -15.5,    4.4749999,           1.
   3906,        -15.5,  0.275000006,          1.5
   3907,        -15.5,  0.800000012,          1.5
   3908,        -15.5,   1.32500005,          1.5
   3909,        -15.5,   1.85000002,          1.5
   3910,        -15.5,        2.375,          1.5
   3911,        -15.5,    2.9000001,          1.5
   3912,        -15.5,   3.42499995,          1.5
   3913,        -15.5,   3.95000005,          1.5
   3914,        -15.5,    4.4749999,          1.5
   3915,        -14.5,  -2.22727275,         -2.5
   3916,         -15.,  -2.22727275,         -2.5
   3917,        -15.5,  -2.22727275,         -2.5
   3918,        -14.5,  -2.22727275,          -3.
   3919,         -15.,  -2.22727275,          -3.
   3920,        -15.5,  -2.22727275,          -3.
   3921,        -14.5,  -2.22727275,         -3.5
   3922,         -15.,  -2.22727275,         -3.5
   3923,        -15.5,  -2.22727275,         -3.5
   3924,        -14.5,  -2.22727275,          -4.
   3925,         -15.,  -2.22727275,          -4.
   3926,        -15.5,  -2.22727275,          -4.
   3927,        -14.5,  -2.22727275,         -4.5
   3928,         -15.,  -2.22727275,         -4.5
   3929,        -15.5,  -2.22727275,         -4.5
   3930,        -14.5,  -2.22727275,          -5.
   3931,         -15.,  -2.22727275,          -5.
   3932,        -15.5,  -2.22727275,          -5.
   3933,        -14.5,  -2.22727275,         -5.5
   3934,         -15.,  -2.22727275,         -5.5
   3935,        -15.5,  -2.22727275,         -5.5
   3936,        -14.5,   -2.7045455,         -2.5
   3937,         -15.,   -2.7045455,         -2.5
   3938,        -15.5,   -2.7045455,         -2.5
   3939,        -14.5,   -2.7045455,          -3.
   3940,         -15.,   -2.7045455,          -3.
   3941,        -15.5,   -2.7045455,          -3.
   3942,        -14.5,   -2.7045455,         -3.5
   3943,         -15.,   -2.7045455,         -3.5
   3944,        -15.5,   -2.7045455,         -3.5
   3945,        -14.5,   -2.7045455,          -4.
   3946,         -15.,   -2.7045455,          -4.
   3947,        -15.5,   -2.7045455,          -4.
   3948,        -14.5,   -2.7045455,         -4.5
   3949,         -15.,   -2.7045455,         -4.5
   3950,        -15.5,   -2.7045455,         -4.5
   3951,        -14.5,   -2.7045455,          -5.
   3952,         -15.,   -2.7045455,          -5.
   3953,        -15.5,   -2.7045455,          -5.
   3954,        -14.5,   -2.7045455,         -5.5
   3955,         -15.,   -2.7045455,         -5.5
   3956,        -15.5,   -2.7045455,         -5.5
   3957,        -14.5,  -3.18181825,         -2.5
   3958,         -15.,  -3.18181825,         -2.5
   3959,        -15.5,  -3.18181825,         -2.5
   3960,        -14.5,  -3.18181825,          -3.
   3961,         -15.,  -3.18181825,          -3.
   3962,        -15.5,  -3.18181825,          -3.
   3963,        -14.5,  -3.18181825,         -3.5
   3964,         -15.,  -3.18181825,         -3.5
   3965,        -15.5,  -3.18181825,         -3.5
   3966,        -14.5,  -3.18181825,          -4.
   3967,         -15.,  -3.18181825,          -4.
   3968,        -15.5,  -3.18181825,          -4.
   3969,        -14.5,  -3.18181825,         -4.5
   3970,         -15.,  -3.18181825,         -4.5
   3971,        -15.5,  -3.18181825,         -4.5
   3972,        -14.5,  -3.18181825,          -5.
   3973,         -15.,  -3.18181825,          -5.
   3974,        -15.5,  -3.18181825,          -5.
   3975,        -14.5,  -3.18181825,         -5.5
   3976,         -15.,  -3.18181825,         -5.5
   3977,        -15.5,  -3.18181825,         -5.5
   3978,        -14.5,    -3.659091,         -2.5
   3979,         -15.,    -3.659091,         -2.5
   3980,        -15.5,    -3.659091,         -2.5
   3981,        -14.5,    -3.659091,          -3.
   3982,         -15.,    -3.659091,          -3.
   3983,        -15.5,    -3.659091,          -3.
   3984,        -14.5,    -3.659091,         -3.5
   3985,         -15.,    -3.659091,         -3.5
   3986,        -15.5,    -3.659091,         -3.5
   3987,        -14.5,    -3.659091,          -4.
   3988,         -15.,    -3.659091,          -4.
   3989,        -15.5,    -3.659091,          -4.
   3990,        -14.5,    -3.659091,         -4.5
   3991,         -15.,    -3.659091,         -4.5
   3992,        -15.5,    -3.659091,         -4.5
   3993,        -14.5,    -3.659091,          -5.
   3994,         -15.,    -3.659091,          -5.
   3995,        -15.5,    -3.659091,          -5.
   3996,        -14.5,    -3.659091,         -5.5
   3997,         -15.,    -3.659091,         -5.5
   3998,        -15.5,    -3.659091,         -5.5
   3999,        -14.5,  -4.13636351,         -2.5
   4000,         -15.,  -4.13636351,         -2.5
   4001,        -15.5,  -4.13636351,         -2.5
   4002,        -14.5,  -4.13636351,          -3.
   4003,         -15.,  -4.13636351,          -3.
   4004,        -15.5,  -4.13636351,          -3.
   4005,        -14.5,  -4.13636351,         -3.5
   4006,         -15.,  -4.13636351,         -3.5
   4007,        -15.5,  -4.13636351,         -3.5
   4008,        -14.5,  -4.13636351,          -4.
   4009,         -15.,  -4.13636351,          -4.
   4010,        -15.5,  -4.13636351,          -4.
   4011,        -14.5,  -4.13636351,         -4.5
   4012,         -15.,  -4.13636351,         -4.5
   4013,        -15.5,  -4.13636351,         -4.5
   4014,        -14.5,  -4.13636351,          -5.
   4015,         -15.,  -4.13636351,          -5.
   4016,        -15.5,  -4.13636351,          -5.
   4017,        -14.5,  -4.13636351,         -5.5
   4018,         -15.,  -4.13636351,         -5.5
   4019,        -15.5,  -4.13636351,         -5.5
   4020,        -14.5,  -4.61363649,         -2.5
   4021,         -15.,  -4.61363649,         -2.5
   4022,        -15.5,  -4.61363649,         -2.5
   4023,        -14.5,  -4.61363649,          -3.
   4024,         -15.,  -4.61363649,          -3.
   4025,        -15.5,  -4.61363649,          -3.
   4026,        -14.5,  -4.61363649,         -3.5
   4027,         -15.,  -4.61363649,         -3.5
   4028,        -15.5,  -4.61363649,         -3.5
   4029,        -14.5,  -4.61363649,          -4.
   4030,         -15.,  -4.61363649,          -4.
   4031,        -15.5,  -4.61363649,          -4.
   4032,        -14.5,  -4.61363649,         -4.5
   4033,         -15.,  -4.61363649,         -4.5
   4034,        -15.5,  -4.61363649,         -4.5
   4035,        -14.5,  -4.61363649,          -5.
   4036,         -15.,  -4.61363649,          -5.
   4037,        -15.5,  -4.61363649,          -5.
   4038,        -14.5,  -4.61363649,         -5.5
   4039,         -15.,  -4.61363649,         -5.5
   4040,        -15.5,  -4.61363649,         -5.5
   4041,        -14.5,    -5.090909,         -2.5
   4042,         -15.,    -5.090909,         -2.5
   4043,        -15.5,    -5.090909,         -2.5
   4044,        -14.5,    -5.090909,          -3.
   4045,         -15.,    -5.090909,          -3.
   4046,        -15.5,    -5.090909,          -3.
   4047,        -14.5,    -5.090909,         -3.5
   4048,         -15.,    -5.090909,         -3.5
   4049,        -15.5,    -5.090909,         -3.5
   4050,        -14.5,    -5.090909,          -4.
   4051,         -15.,    -5.090909,          -4.
   4052,        -15.5,    -5.090909,          -4.
   4053,        -14.5,    -5.090909,         -4.5
   4054,         -15.,    -5.090909,         -4.5
   4055,        -15.5,    -5.090909,         -4.5
   4056,        -14.5,    -5.090909,          -5.
   4057,         -15.,    -5.090909,          -5.
   4058,        -15.5,    -5.090909,          -5.
   4059,        -14.5,    -5.090909,         -5.5
   4060,         -15.,    -5.090909,         -5.5
   4061,        -15.5,    -5.090909,         -5.5
   4062,        -14.5,  -5.56818199,         -2.5
   4063,         -15.,  -5.56818199,         -2.5
   4064,        -15.5,  -5.56818199,         -2.5
   4065,        -14.5,  -5.56818199,          -3.
   4066,         -15.,  -5.56818199,          -3.
   4067,        -15.5,  -5.56818199,          -3.
   4068,        -14.5,  -5.56818199,         -3.5
   4069,         -15.,  -5.56818199,         -3.5
   4070,        -15.5,  -5.56818199,         -3.5
   4071,        -14.5,  -5.56818199,          -4.
   4072,         -15.,  -5.56818199,          -4.
   4073,        -15.5,  -5.56818199,          -4.
   4074,        -14.5,  -5.56818199,         -4.5
   4075,         -15.,  -5.56818199,         -4.5
   4076,        -15.5,  -5.56818199,         -4.5
   4077,        -14.5,  -5.56818199,          -5.
   4078,         -15.,  -5.56818199,          -5.
   4079,        -15.5,  -5.56818199,          -5.
   4080,        -14.5,  -5.56818199,         -5.5
   4081,         -15.,  -5.56818199,         -5.5
   4082,        -15.5,  -5.56818199,         -5.5
   4083,        -14.5,   -6.0454545,         -2.5
   4084,         -15.,   -6.0454545,         -2.5
   4085,        -15.5,   -6.0454545,         -2.5
   4086,        -14.5,   -6.0454545,          -3.
   4087,         -15.,   -6.0454545,          -3.
   4088,        -15.5,   -6.0454545,          -3.
   4089,        -14.5,   -6.0454545,         -3.5
   4090,         -15.,   -6.0454545,         -3.5
   4091,        -15.5,   -6.0454545,         -3.5
   4092,        -14.5,   -6.0454545,          -4.
   4093,         -15.,   -6.0454545,          -4.
   4094,        -15.5,   -6.0454545,          -4.
   4095,        -14.5,   -6.0454545,         -4.5
   4096,         -15.,   -6.0454545,         -4.5
   4097,        -15.5,   -6.0454545,         -4.5
   4098,        -14.5,   -6.0454545,          -5.
   4099,         -15.,   -6.0454545,          -5.
   4100,        -15.5,   -6.0454545,          -5.
   4101,        -14.5,   -6.0454545,         -5.5
   4102,         -15.,   -6.0454545,         -5.5
   4103,        -15.5,   -6.0454545,         -5.5
   4104,        -14.5,  -6.52272749,         -2.5
   4105,         -15.,  -6.52272749,         -2.5
   4106,        -15.5,  -6.52272749,         -2.5
   4107,        -14.5,  -6.52272749,          -3.
   4108,         -15.,  -6.52272749,          -3.
   4109,        -15.5,  -6.52272749,          -3.
   4110,        -14.5,  -6.52272749,         -3.5
   4111,         -15.,  -6.52272749,         -3.5
   4112,        -15.5,  -6.52272749,         -3.5
   4113,        -14.5,  -6.52272749,          -4.
   4114,         -15.,  -6.52272749,          -4.
   4115,        -15.5,  -6.52272749,          -4.
   4116,        -14.5,  -6.52272749,         -4.5
   4117,         -15.,  -6.52272749,         -4.5
   4118,        -15.5,  -6.52272749,         -4.5
   4119,        -14.5,  -6.52272749,          -5.
   4120,         -15.,  -6.52272749,          -5.
   4121,        -15.5,  -6.52272749,          -5.
   4122,        -14.5,  -6.52272749,         -5.5
   4123,         -15.,  -6.52272749,         -5.5
   4124,        -15.5,  -6.52272749,         -5.5
   4125,        -15.5,  0.275000006,         -2.5
   4126,        -15.5,  0.800000012,         -2.5
   4127,        -15.5,   1.32500005,         -2.5
   4128,        -15.5,   1.85000002,         -2.5
   4129,        -15.5,        2.375,         -2.5
   4130,        -15.5,    2.9000001,         -2.5
   4131,        -15.5,   3.42499995,         -2.5
   4132,        -15.5,   3.95000005,         -2.5
   4133,        -15.5,    4.4749999,         -2.5
   4134,        -15.5,  0.275000006,          -3.
   4135,        -15.5,  0.800000012,          -3.
   4136,        -15.5,   1.32500005,          -3.
   4137,        -15.5,   1.85000002,          -3.
   4138,        -15.5,        2.375,          -3.
   4139,        -15.5,    2.9000001,          -3.
   4140,        -15.5,   3.42499995,          -3.
   4141,        -15.5,   3.95000005,          -3.
   4142,        -15.5,    4.4749999,          -3.
   4143,        -15.5,  0.275000006,         -3.5
   4144,        -15.5,  0.800000012,         -3.5
   4145,        -15.5,   1.32500005,         -3.5
   4146,        -15.5,   1.85000002,         -3.5
   4147,        -15.5,        2.375,         -3.5
   4148,        -15.5,    2.9000001,         -3.5
   4149,        -15.5,   3.42499995,         -3.5
   4150,        -15.5,   3.95000005,         -3.5
   4151,        -15.5,    4.4749999,         -3.5
   4152,        -15.5,  0.275000006,          -4.
   4153,        -15.5,  0.800000012,          -4.
   4154,        -15.5,   1.32500005,          -4.
   4155,        -15.5,   1.85000002,          -4.
   4156,        -15.5,        2.375,          -4.
   4157,        -15.5,    2.9000001,          -4.
   4158,        -15.5,   3.42499995,          -4.
   4159,        -15.5,   3.95000005,          -4.
   4160,        -15.5,    4.4749999,          -4.
   4161,        -15.5,  0.275000006,         -4.5
   4162,        -15.5,  0.800000012,         -4.5
   4163,        -15.5,   1.32500005,         -4.5
   4164,        -15.5,   1.85000002,         -4.5
   4165,        -15.5,        2.375,         -4.5
   4166,        -15.5,    2.9000001,         -4.5
   4167,        -15.5,   3.42499995,         -4.5
   4168,        -15.5,   3.95000005,         -4.5
   4169,        -15.5,    4.4749999,         -4.5
   4170,        -15.5,  0.275000006,          -5.
   4171,        -15.5,  0.800000012,          -5.
   4172,        -15.5,   1.32500005,          -5.
   4173,        -15.5,   1.85000002,          -5.
   4174,        -15.5,        2.375,          -5.
   4175,        -15.5,    2.9000001,          -5.
   4176,        -15.5,   3.42499995,          -5.
   4177,        -15.5,   3.95000005,          -5.
   4178,        -15.5,    4.4749999,          -5.
   4179,        -15.5,  0.275000006,         -5.5
   4180,        -15.5,  0.800000012,         -5.5
   4181,        -15.5,   1.32500005,         -5.5
   4182,        -15.5,   1.85000002,         -5.5
   4183,        -15.5,        2.375,         -5.5
   4184,        -15.5,    2.9000001,         -5.5
   4185,        -15.5,   3.42499995,         -5.5
   4186,        -15.5,   3.95000005,         -5.5
   4187,        -15.5,    4.4749999,         -5.5
   4188,         -15.,  0.275000006,         -2.5
   4189,         -15.,  0.800000012,         -2.5
   4190,         -15.,   1.32500005,         -2.5
   4191,         -15.,   1.85000002,         -2.5
   4192,         -15.,        2.375,         -2.5
   4193,         -15.,    2.9000001,         -2.5
   4194,         -15.,   3.42499995,         -2.5
   4195,         -15.,   3.95000005,         -2.5
   4196,         -15.,    4.4749999,         -2.5
   4197,         -15.,  0.275000006,          -3.
   4198,         -15.,  0.800000012,          -3.
   4199,         -15.,   1.32500005,          -3.
   4200,         -15.,   1.85000002,          -3.
   4201,         -15.,        2.375,          -3.
   4202,         -15.,    2.9000001,          -3.
   4203,         -15.,   3.42499995,          -3.
   4204,         -15.,   3.95000005,          -3.
   4205,         -15.,    4.4749999,          -3.
   4206,         -15.,  0.275000006,         -3.5
   4207,         -15.,  0.800000012,         -3.5
   4208,         -15.,   1.32500005,         -3.5
   4209,         -15.,   1.85000002,         -3.5
   4210,         -15.,        2.375,         -3.5
   4211,         -15.,    2.9000001,         -3.5
   4212,         -15.,   3.42499995,         -3.5
   4213,         -15.,   3.95000005,         -3.5
   4214,         -15.,    4.4749999,         -3.5
   4215,         -15.,  0.275000006,          -4.
   4216,         -15.,  0.800000012,          -4.
   4217,         -15.,   1.32500005,          -4.
   4218,         -15.,   1.85000002,          -4.
   4219,         -15.,        2.375,          -4.
   4220,         -15.,    2.9000001,          -4.
   4221,         -15.,   3.42499995,          -4.
   4222,         -15.,   3.95000005,          -4.
   4223,         -15.,    4.4749999,          -4.
   4224,         -15.,  0.275000006,         -4.5
   4225,         -15.,  0.800000012,         -4.5
   4226,         -15.,   1.32500005,         -4.5
   4227,         -15.,   1.85000002,         -4.5
   4228,         -15.,        2.375,         -4.5
   4229,         -15.,    2.9000001,         -4.5
   4230,         -15.,   3.42499995,         -4.5
   4231,         -15.,   3.95000005,         -4.5
   4232,         -15.,    4.4749999,         -4.5
   4233,         -15.,  0.275000006,          -5.
   4234,         -15.,  0.800000012,          -5.
   4235,         -15.,   1.32500005,          -5.
   4236,         -15.,   1.85000002,          -5.
   4237,         -15.,        2.375,          -5.
   4238,         -15.,    2.9000001,          -5.
   4239,         -15.,   3.42499995,          -5.
   4240,         -15.,   3.95000005,          -5.
   4241,         -15.,    4.4749999,          -5.
   4242,         -15.,  0.275000006,         -5.5
   4243,         -15.,  0.800000012,         -5.5
   4244,         -15.,   1.32500005,         -5.5
   4245,         -15.,   1.85000002,         -5.5
   4246,         -15.,        2.375,         -5.5
   4247,         -15.,    2.9000001,         -5.5
   4248,         -15.,   3.42499995,         -5.5
   4249,         -15.,   3.95000005,         -5.5
   4250,         -15.,    4.4749999,         -5.5
   4251,        -14.5,  0.275000006,         -2.5
   4252,        -14.5,  0.800000012,         -2.5
   4253,        -14.5,   1.32500005,         -2.5
   4254,        -14.5,   1.85000002,         -2.5
   4255,        -14.5,        2.375,         -2.5
   4256,        -14.5,    2.9000001,         -2.5
   4257,        -14.5,   3.42499995,         -2.5
   4258,        -14.5,   3.95000005,         -2.5
   4259,        -14.5,    4.4749999,         -2.5
   4260,        -14.5,  0.275000006,          -3.
   4261,        -14.5,  0.800000012,          -3.
   4262,        -14.5,   1.32500005,          -3.
   4263,        -14.5,   1.85000002,          -3.
   4264,        -14.5,        2.375,          -3.
   4265,        -14.5,    2.9000001,          -3.
   4266,        -14.5,   3.42499995,          -3.
   4267,        -14.5,   3.95000005,          -3.
   4268,        -14.5,    4.4749999,          -3.
   4269,        -14.5,  0.275000006,         -3.5
   4270,        -14.5,  0.800000012,         -3.5
   4271,        -14.5,   1.32500005,         -3.5
   4272,        -14.5,   1.85000002,         -3.5
   4273,        -14.5,        2.375,         -3.5
   4274,        -14.5,    2.9000001,         -3.5
   4275,        -14.5,   3.42499995,         -3.5
   4276,        -14.5,   3.95000005,         -3.5
   4277,        -14.5,    4.4749999,         -3.5
   4278,        -14.5,  0.275000006,          -4.
   4279,        -14.5,  0.800000012,          -4.
   4280,        -14.5,   1.32500005,          -4.
   4281,        -14.5,   1.85000002,          -4.
   4282,        -14.5,        2.375,          -4.
   4283,        -14.5,    2.9000001,          -4.
   4284,        -14.5,   3.42499995,          -4.
   4285,        -14.5,   3.95000005,          -4.
   4286,        -14.5,    4.4749999,          -4.
   4287,        -14.5,  0.275000006,         -4.5
   4288,        -14.5,  0.800000012,         -4.5
   4289,        -14.5,   1.32500005,         -4.5
   4290,        -14.5,   1.85000002,         -4.5
   4291,        -14.5,        2.375,         -4.5
   4292,        -14.5,    2.9000001,         -4.5
   4293,        -14.5,   3.42499995,         -4.5
   4294,        -14.5,   3.95000005,         -4.5
   4295,        -14.5,    4.4749999,         -4.5
   4296,        -14.5,  0.275000006,          -5.
   4297,        -14.5,  0.800000012,          -5.
   4298,        -14.5,   1.32500005,          -5.
   4299,        -14.5,   1.85000002,          -5.
   4300,        -14.5,        2.375,          -5.
   4301,        -14.5,    2.9000001,          -5.
   4302,        -14.5,   3.42499995,          -5.
   4303,        -14.5,   3.95000005,          -5.
   4304,        -14.5,    4.4749999,          -5.
   4305,        -14.5,  0.275000006,         -5.5
   4306,        -14.5,  0.800000012,         -5.5
   4307,        -14.5,   1.32500005,         -5.5
   4308,        -14.5,   1.85000002,         -5.5
   4309,        -14.5,        2.375,         -5.5
   4310,        -14.5,    2.9000001,         -5.5
   4311,        -14.5,   3.42499995,         -5.5
   4312,        -14.5,   3.95000005,         -5.5
   4313,        -14.5,    4.4749999,         -5.5
   4314,        -15.5,  -6.52272749,         -1.5
   4315,         -15.,  -6.52272749,         -1.5
   4316,        -14.5,  -6.52272749,         -1.5
   4317,        -15.5,  -6.52272749,          -1.
   4318,         -15.,  -6.52272749,          -1.
   4319,        -14.5,  -6.52272749,          -1.
   4320,        -15.5,  -6.52272749,         -0.5
   4321,         -15.,  -6.52272749,         -0.5
   4322,        -14.5,  -6.52272749,         -0.5
   4323,        -15.5,  -6.52272749,           0.
   4324,         -15.,  -6.52272749,           0.
   4325,        -14.5,  -6.52272749,           0.
   4326,        -15.5,  -6.52272749,          0.5
   4327,         -15.,  -6.52272749,          0.5
   4328,        -14.5,  -6.52272749,          0.5
   4329,        -15.5,  -6.52272749,           1.
   4330,         -15.,  -6.52272749,           1.
   4331,        -14.5,  -6.52272749,           1.
   4332,        -15.5,  -6.52272749,          1.5
   4333,         -15.,  -6.52272749,          1.5
   4334,        -14.5,  -6.52272749,          1.5
   4335,        -15.5,   -6.0454545,         -1.5
   4336,         -15.,   -6.0454545,         -1.5
   4337,        -14.5,   -6.0454545,         -1.5
   4338,        -15.5,   -6.0454545,          -1.
   4339,         -15.,   -6.0454545,          -1.
   4340,        -14.5,   -6.0454545,          -1.
   4341,        -15.5,   -6.0454545,         -0.5
   4342,         -15.,   -6.0454545,         -0.5
   4343,        -14.5,   -6.0454545,         -0.5
   4344,        -15.5,   -6.0454545,           0.
   4345,         -15.,   -6.0454545,           0.
   4346,        -14.5,   -6.0454545,           0.
   4347,        -15.5,   -6.0454545,          0.5
   4348,         -15.,   -6.0454545,          0.5
   4349,        -14.5,   -6.0454545,          0.5
   4350,        -15.5,   -6.0454545,           1.
   4351,         -15.,   -6.0454545,           1.
   4352,        -14.5,   -6.0454545,           1.
   4353,        -15.5,   -6.0454545,          1.5
   4354,         -15.,   -6.0454545,          1.5
   4355,        -14.5,   -6.0454545,          1.5
   4356,        -15.5,  -5.56818199,         -1.5
   4357,         -15.,  -5.56818199,         -1.5
   4358,        -14.5,  -5.56818199,         -1.5
   4359,        -15.5,  -5.56818199,          -1.
   4360,         -15.,  -5.56818199,          -1.
   4361,        -14.5,  -5.56818199,          -1.
   4362,        -15.5,  -5.56818199,         -0.5
   4363,         -15.,  -5.56818199,         -0.5
   4364,        -14.5,  -5.56818199,         -0.5
   4365,        -15.5,  -5.56818199,           0.
   4366,         -15.,  -5.56818199,           0.
   4367,        -14.5,  -5.56818199,           0.
   4368,        -15.5,  -5.56818199,          0.5
   4369,         -15.,  -5.56818199,          0.5
   4370,        -14.5,  -5.56818199,          0.5
   4371,        -15.5,  -5.56818199,           1.
   4372,         -15.,  -5.56818199,           1.
   4373,        -14.5,  -5.56818199,           1.
   4374,        -15.5,  -5.56818199,          1.5
   4375,         -15.,  -5.56818199,          1.5
   4376,        -14.5,  -5.56818199,          1.5
   4377,        -15.5,    -5.090909,         -1.5
   4378,         -15.,    -5.090909,         -1.5
   4379,        -14.5,    -5.090909,         -1.5
   4380,        -15.5,    -5.090909,          -1.
   4381,         -15.,    -5.090909,          -1.
   4382,        -14.5,    -5.090909,          -1.
   4383,        -15.5,    -5.090909,         -0.5
   4384,         -15.,    -5.090909,         -0.5
   4385,        -14.5,    -5.090909,         -0.5
   4386,        -15.5,    -5.090909,           0.
   4387,         -15.,    -5.090909,           0.
   4388,        -14.5,    -5.090909,           0.
   4389,        -15.5,    -5.090909,          0.5
   4390,         -15.,    -5.090909,          0.5
   4391,        -14.5,    -5.090909,          0.5
   4392,        -15.5,    -5.090909,           1.
   4393,         -15.,    -5.090909,           1.
   4394,        -14.5,    -5.090909,           1.
   4395,        -15.5,    -5.090909,          1.5
   4396,         -15.,    -5.090909,          1.5
   4397,        -14.5,    -5.090909,          1.5
   4398,        -15.5,  -4.61363649,         -1.5
   4399,         -15.,  -4.61363649,         -1.5
   4400,        -14.5,  -4.61363649,         -1.5
   4401,        -15.5,  -4.61363649,          -1.
   4402,         -15.,  -4.61363649,          -1.
   4403,        -14.5,  -4.61363649,          -1.
   4404,        -15.5,  -4.61363649,         -0.5
   4405,         -15.,  -4.61363649,         -0.5
   4406,        -14.5,  -4.61363649,         -0.5
   4407,        -15.5,  -4.61363649,           0.
   4408,         -15.,  -4.61363649,           0.
   4409,        -14.5,  -4.61363649,           0.
   4410,        -15.5,  -4.61363649,          0.5
   4411,         -15.,  -4.61363649,          0.5
   4412,        -14.5,  -4.61363649,          0.5
   4413,        -15.5,  -4.61363649,           1.
   4414,         -15.,  -4.61363649,           1.
   4415,        -14.5,  -4.61363649,           1.
   4416,        -15.5,  -4.61363649,          1.5
   4417,         -15.,  -4.61363649,          1.5
   4418,        -14.5,  -4.61363649,          1.5
   4419,        -15.5,  -4.13636351,         -1.5
   4420,         -15.,  -4.13636351,         -1.5
   4421,        -14.5,  -4.13636351,         -1.5
   4422,        -15.5,  -4.13636351,          -1.
   4423,         -15.,  -4.13636351,          -1.
   4424,        -14.5,  -4.13636351,          -1.
   4425,        -15.5,  -4.13636351,         -0.5
   4426,         -15.,  -4.13636351,         -0.5
   4427,        -14.5,  -4.13636351,         -0.5
   4428,        -15.5,  -4.13636351,           0.
   4429,         -15.,  -4.13636351,           0.
   4430,        -14.5,  -4.13636351,           0.
   4431,        -15.5,  -4.13636351,          0.5
   4432,         -15.,  -4.13636351,          0.5
   4433,        -14.5,  -4.13636351,          0.5
   4434,        -15.5,  -4.13636351,           1.
   4435,         -15.,  -4.13636351,           1.
   4436,        -14.5,  -4.13636351,           1.
   4437,        -15.5,  -4.13636351,          1.5
   4438,         -15.,  -4.13636351,          1.5
   4439,        -14.5,  -4.13636351,          1.5
   4440,        -15.5,    -3.659091,         -1.5
   4441,         -15.,    -3.659091,         -1.5
   4442,        -14.5,    -3.659091,         -1.5
   4443,        -15.5,    -3.659091,          -1.
   4444,         -15.,    -3.659091,          -1.
   4445,        -14.5,    -3.659091,          -1.
   4446,        -15.5,    -3.659091,         -0.5
   4447,         -15.,    -3.659091,         -0.5
   4448,        -14.5,    -3.659091,         -0.5
   4449,        -15.5,    -3.659091,           0.
   4450,         -15.,    -3.659091,           0.
   4451,        -14.5,    -3.659091,           0.
   4452,        -15.5,    -3.659091,          0.5
   4453,         -15.,    -3.659091,          0.5
   4454,        -14.5,    -3.659091,          0.5
   4455,        -15.5,    -3.659091,           1.
   4456,         -15.,    -3.659091,           1.
   4457,        -14.5,    -3.659091,           1.
   4458,        -15.5,    -3.659091,          1.5
   4459,         -15.,    -3.659091,          1.5
   4460,        -14.5,    -3.659091,          1.5
   4461,        -15.5,  -3.18181825,         -1.5
   4462,         -15.,  -3.18181825,         -1.5
   4463,        -14.5,  -3.18181825,         -1.5
   4464,        -15.5,  -3.18181825,          -1.
   4465,         -15.,  -3.18181825,          -1.
   4466,        -14.5,  -3.18181825,          -1.
   4467,        -15.5,  -3.18181825,         -0.5
   4468,         -15.,  -3.18181825,         -0.5
   4469,        -14.5,  -3.18181825,         -0.5
   4470,        -15.5,  -3.18181825,           0.
   4471,         -15.,  -3.18181825,           0.
   4472,        -14.5,  -3.18181825,           0.
   4473,        -15.5,  -3.18181825,          0.5
   4474,         -15.,  -3.18181825,          0.5
   4475,        -14.5,  -3.18181825,          0.5
   4476,        -15.5,  -3.18181825,           1.
   4477,         -15.,  -3.18181825,           1.
   4478,        -14.5,  -3.18181825,           1.
   4479,        -15.5,  -3.18181825,          1.5
   4480,         -15.,  -3.18181825,          1.5
   4481,        -14.5,  -3.18181825,          1.5
   4482,        -15.5,   -2.7045455,         -1.5
   4483,         -15.,   -2.7045455,         -1.5
   4484,        -14.5,   -2.7045455,         -1.5
   4485,        -15.5,   -2.7045455,          -1.
   4486,         -15.,   -2.7045455,          -1.
   4487,        -14.5,   -2.7045455,          -1.
   4488,        -15.5,   -2.7045455,         -0.5
   4489,         -15.,   -2.7045455,         -0.5
   4490,        -14.5,   -2.7045455,         -0.5
   4491,        -15.5,   -2.7045455,           0.
   4492,         -15.,   -2.7045455,           0.
   4493,        -14.5,   -2.7045455,           0.
   4494,        -15.5,   -2.7045455,          0.5
   4495,         -15.,   -2.7045455,          0.5
   4496,        -14.5,   -2.7045455,          0.5
   4497,        -15.5,   -2.7045455,           1.
   4498,         -15.,   -2.7045455,           1.
   4499,        -14.5,   -2.7045455,           1.
   4500,        -15.5,   -2.7045455,          1.5
   4501,         -15.,   -2.7045455,          1.5
   4502,        -14.5,   -2.7045455,          1.5
   4503,        -15.5,  -2.22727275,         -1.5
   4504,         -15.,  -2.22727275,         -1.5
   4505,        -14.5,  -2.22727275,         -1.5
   4506,        -15.5,  -2.22727275,          -1.
   4507,         -15.,  -2.22727275,          -1.
   4508,        -14.5,  -2.22727275,          -1.
   4509,        -15.5,  -2.22727275,         -0.5
   4510,         -15.,  -2.22727275,         -0.5
   4511,        -14.5,  -2.22727275,         -0.5
   4512,        -15.5,  -2.22727275,           0.
   4513,         -15.,  -2.22727275,           0.
   4514,        -14.5,  -2.22727275,           0.
   4515,        -15.5,  -2.22727275,          0.5
   4516,         -15.,  -2.22727275,          0.5
   4517,        -14.5,  -2.22727275,          0.5
   4518,        -15.5,  -2.22727275,           1.
   4519,         -15.,  -2.22727275,           1.
   4520,        -14.5,  -2.22727275,           1.
   4521,        -15.5,  -2.22727275,          1.5
   4522,         -15.,  -2.22727275,          1.5
   4523,        -14.5,  -2.22727275,          1.5
   4524,        -15.5,  -6.52272749,          2.5
   4525,         -15.,  -6.52272749,          2.5
   4526,        -14.5,  -6.52272749,          2.5
   4527,        -15.5,  -6.52272749,           3.
   4528,         -15.,  -6.52272749,           3.
   4529,        -14.5,  -6.52272749,           3.
   4530,        -15.5,  -6.52272749,          3.5
   4531,         -15.,  -6.52272749,          3.5
   4532,        -14.5,  -6.52272749,          3.5
   4533,        -15.5,  -6.52272749,           4.
   4534,         -15.,  -6.52272749,           4.
   4535,        -14.5,  -6.52272749,           4.
   4536,        -15.5,  -6.52272749,          4.5
   4537,         -15.,  -6.52272749,          4.5
   4538,        -14.5,  -6.52272749,          4.5
   4539,        -15.5,  -6.52272749,           5.
   4540,         -15.,  -6.52272749,           5.
   4541,        -14.5,  -6.52272749,           5.
   4542,        -15.5,  -6.52272749,          5.5
   4543,         -15.,  -6.52272749,          5.5
   4544,        -14.5,  -6.52272749,          5.5
   4545,        -15.5,   -6.0454545,          2.5
   4546,         -15.,   -6.0454545,          2.5
   4547,        -14.5,   -6.0454545,          2.5
   4548,        -15.5,   -6.0454545,           3.
   4549,         -15.,   -6.0454545,           3.
   4550,        -14.5,   -6.0454545,           3.
   4551,        -15.5,   -6.0454545,          3.5
   4552,         -15.,   -6.0454545,          3.5
   4553,        -14.5,   -6.0454545,          3.5
   4554,        -15.5,   -6.0454545,           4.
   4555,         -15.,   -6.0454545,           4.
   4556,        -14.5,   -6.0454545,           4.
   4557,        -15.5,   -6.0454545,          4.5
   4558,         -15.,   -6.0454545,          4.5
   4559,        -14.5,   -6.0454545,          4.5
   4560,        -15.5,   -6.0454545,           5.
   4561,         -15.,   -6.0454545,           5.
   4562,        -14.5,   -6.0454545,           5.
   4563,        -15.5,   -6.0454545,          5.5
   4564,         -15.,   -6.0454545,          5.5
   4565,        -14.5,   -6.0454545,          5.5
   4566,        -15.5,  -5.56818199,          2.5
   4567,         -15.,  -5.56818199,          2.5
   4568,        -14.5,  -5.56818199,          2.5
   4569,        -15.5,  -5.56818199,           3.
   4570,         -15.,  -5.56818199,           3.
   4571,        -14.5,  -5.56818199,           3.
   4572,        -15.5,  -5.56818199,          3.5
   4573,         -15.,  -5.56818199,          3.5
   4574,        -14.5,  -5.56818199,          3.5
   4575,        -15.5,  -5.56818199,           4.
   4576,         -15.,  -5.56818199,           4.
   4577,        -14.5,  -5.56818199,           4.
   4578,        -15.5,  -5.56818199,          4.5
   4579,         -15.,  -5.56818199,          4.5
   4580,        -14.5,  -5.56818199,          4.5
   4581,        -15.5,  -5.56818199,           5.
   4582,         -15.,  -5.56818199,           5.
   4583,        -14.5,  -5.56818199,           5.
   4584,        -15.5,  -5.56818199,          5.5
   4585,         -15.,  -5.56818199,          5.5
   4586,        -14.5,  -5.56818199,          5.5
   4587,        -15.5,    -5.090909,          2.5
   4588,         -15.,    -5.090909,          2.5
   4589,        -14.5,    -5.090909,          2.5
   4590,        -15.5,    -5.090909,           3.
   4591,         -15.,    -5.090909,           3.
   4592,        -14.5,    -5.090909,           3.
   4593,        -15.5,    -5.090909,          3.5
   4594,         -15.,    -5.090909,          3.5
   4595,        -14.5,    -5.090909,          3.5
   4596,        -15.5,    -5.090909,           4.
   4597,         -15.,    -5.090909,           4.
   4598,        -14.5,    -5.090909,           4.
   4599,        -15.5,    -5.090909,          4.5
   4600,         -15.,    -5.090909,          4.5
   4601,        -14.5,    -5.090909,          4.5
   4602,        -15.5,    -5.090909,           5.
   4603,         -15.,    -5.090909,           5.
   4604,        -14.5,    -5.090909,           5.
   4605,        -15.5,    -5.090909,          5.5
   4606,         -15.,    -5.090909,          5.5
   4607,        -14.5,    -5.090909,          5.5
   4608,        -15.5,  -4.61363649,          2.5
   4609,         -15.,  -4.61363649,          2.5
   4610,        -14.5,  -4.61363649,          2.5
   4611,        -15.5,  -4.61363649,           3.
   4612,         -15.,  -4.61363649,           3.
   4613,        -14.5,  -4.61363649,           3.
   4614,        -15.5,  -4.61363649,          3.5
   4615,         -15.,  -4.61363649,          3.5
   4616,        -14.5,  -4.61363649,          3.5
   4617,        -15.5,  -4.61363649,           4.
   4618,         -15.,  -4.61363649,           4.
   4619,        -14.5,  -4.61363649,           4.
   4620,        -15.5,  -4.61363649,          4.5
   4621,         -15.,  -4.61363649,          4.5
   4622,        -14.5,  -4.61363649,          4.5
   4623,        -15.5,  -4.61363649,           5.
   4624,         -15.,  -4.61363649,           5.
   4625,        -14.5,  -4.61363649,           5.
   4626,        -15.5,  -4.61363649,          5.5
   4627,         -15.,  -4.61363649,          5.5
   4628,        -14.5,  -4.61363649,          5.5
   4629,        -15.5,  -4.13636351,          2.5
   4630,         -15.,  -4.13636351,          2.5
   4631,        -14.5,  -4.13636351,          2.5
   4632,        -15.5,  -4.13636351,           3.
   4633,         -15.,  -4.13636351,           3.
   4634,        -14.5,  -4.13636351,           3.
   4635,        -15.5,  -4.13636351,          3.5
   4636,         -15.,  -4.13636351,          3.5
   4637,        -14.5,  -4.13636351,          3.5
   4638,        -15.5,  -4.13636351,           4.
   4639,         -15.,  -4.13636351,           4.
   4640,        -14.5,  -4.13636351,           4.
   4641,        -15.5,  -4.13636351,          4.5
   4642,         -15.,  -4.13636351,          4.5
   4643,        -14.5,  -4.13636351,          4.5
   4644,        -15.5,  -4.13636351,           5.
   4645,         -15.,  -4.13636351,           5.
   4646,        -14.5,  -4.13636351,           5.
   4647,        -15.5,  -4.13636351,          5.5
   4648,         -15.,  -4.13636351,          5.5
   4649,        -14.5,  -4.13636351,          5.5
   4650,        -15.5,    -3.659091,          2.5
   4651,         -15.,    -3.659091,          2.5
   4652,        -14.5,    -3.659091,          2.5
   4653,        -15.5,    -3.659091,           3.
   4654,         -15.,    -3.659091,           3.
   4655,        -14.5,    -3.659091,           3.
   4656,        -15.5,    -3.659091,          3.5
   4657,         -15.,    -3.659091,          3.5
   4658,        -14.5,    -3.659091,          3.5
   4659,        -15.5,    -3.659091,           4.
   4660,         -15.,    -3.659091,           4.
   4661,        -14.5,    -3.659091,           4.
   4662,        -15.5,    -3.659091,          4.5
   4663,         -15.,    -3.659091,          4.5
   4664,        -14.5,    -3.659091,          4.5
   4665,        -15.5,    -3.659091,           5.
   4666,         -15.,    -3.659091,           5.
   4667,        -14.5,    -3.659091,           5.
   4668,        -15.5,    -3.659091,          5.5
   4669,         -15.,    -3.659091,          5.5
   4670,        -14.5,    -3.659091,          5.5
   4671,        -15.5,  -3.18181825,          2.5
   4672,         -15.,  -3.18181825,          2.5
   4673,        -14.5,  -3.18181825,          2.5
   4674,        -15.5,  -3.18181825,           3.
   4675,         -15.,  -3.18181825,           3.
   4676,        -14.5,  -3.18181825,           3.
   4677,        -15.5,  -3.18181825,          3.5
   4678,         -15.,  -3.18181825,          3.5
   4679,        -14.5,  -3.18181825,          3.5
   4680,        -15.5,  -3.18181825,           4.
   4681,         -15.,  -3.18181825,           4.
   4682,        -14.5,  -3.18181825,           4.
   4683,        -15.5,  -3.18181825,          4.5
   4684,         -15.,  -3.18181825,          4.5
   4685,        -14.5,  -3.18181825,          4.5
   4686,        -15.5,  -3.18181825,           5.
   4687,         -15.,  -3.18181825,           5.
   4688,        -14.5,  -3.18181825,           5.
   4689,        -15.5,  -3.18181825,          5.5
   4690,         -15.,  -3.18181825,          5.5
   4691,        -14.5,  -3.18181825,          5.5
   4692,        -15.5,   -2.7045455,          2.5
   4693,         -15.,   -2.7045455,          2.5
   4694,        -14.5,   -2.7045455,          2.5
   4695,        -15.5,   -2.7045455,           3.
   4696,         -15.,   -2.7045455,           3.
   4697,        -14.5,   -2.7045455,           3.
   4698,        -15.5,   -2.7045455,          3.5
   4699,         -15.,   -2.7045455,          3.5
   4700,        -14.5,   -2.7045455,          3.5
   4701,        -15.5,   -2.7045455,           4.
   4702,         -15.,   -2.7045455,           4.
   4703,        -14.5,   -2.7045455,           4.
   4704,        -15.5,   -2.7045455,          4.5
   4705,         -15.,   -2.7045455,          4.5
   4706,        -14.5,   -2.7045455,          4.5
   4707,        -15.5,   -2.7045455,           5.
   4708,         -15.,   -2.7045455,           5.
   4709,        -14.5,   -2.7045455,           5.
   4710,        -15.5,   -2.7045455,          5.5
   4711,         -15.,   -2.7045455,          5.5
   4712,        -14.5,   -2.7045455,          5.5
   4713,        -15.5,  -2.22727275,          2.5
   4714,         -15.,  -2.22727275,          2.5
   4715,        -14.5,  -2.22727275,          2.5
   4716,        -15.5,  -2.22727275,           3.
   4717,         -15.,  -2.22727275,           3.
   4718,        -14.5,  -2.22727275,           3.
   4719,        -15.5,  -2.22727275,          3.5
   4720,         -15.,  -2.22727275,          3.5
   4721,        -14.5,  -2.22727275,          3.5
   4722,        -15.5,  -2.22727275,           4.
   4723,         -15.,  -2.22727275,           4.
   4724,        -14.5,  -2.22727275,           4.
   4725,        -15.5,  -2.22727275,          4.5
   4726,         -15.,  -2.22727275,          4.5
   4727,        -14.5,  -2.22727275,          4.5
   4728,        -15.5,  -2.22727275,           5.
   4729,         -15.,  -2.22727275,           5.
   4730,        -14.5,  -2.22727275,           5.
   4731,        -15.5,  -2.22727275,          5.5
   4732,         -15.,  -2.22727275,          5.5
   4733,        -14.5,  -2.22727275,          5.5
   4734,  -2.33333325,  -1.01041663,         -1.5
   4735,  -2.66666675, -0.708333313,         -1.5
   4736,          -3.,     -0.40625,         -1.5
   4737,  -3.33333325, -0.104166701,         -1.5
   4738,  -3.66666675,  0.197916701,         -1.5
   4739,  -2.33333325,  -1.01041663,          -1.
   4740,  -2.66666675, -0.708333313,          -1.
   4741,          -3.,     -0.40625,          -1.
   4742,  -3.33333325, -0.104166701,          -1.
   4743,  -3.66666675,  0.197916701,          -1.
   4744,  -2.33333325,  -1.01041663,         -0.5
   4745,  -2.66666675, -0.708333313,         -0.5
   4746,          -3.,     -0.40625,         -0.5
   4747,  -3.33333325, -0.104166701,         -0.5
   4748,  -3.66666675,  0.197916701,         -0.5
   4749,  -2.33333325,  -1.01041663,           0.
   4750,  -2.66666675, -0.708333313,           0.
   4751,          -3.,     -0.40625,           0.
   4752,  -3.33333325, -0.104166701,           0.
   4753,  -3.66666675,  0.197916701,           0.
   4754,  -2.33333325,  -1.01041663,          0.5
   4755,  -2.66666675, -0.708333313,          0.5
   4756,          -3.,     -0.40625,          0.5
   4757,  -3.33333325, -0.104166701,          0.5
   4758,  -3.66666675,  0.197916701,          0.5
   4759,  -2.33333325,  -1.01041663,           1.
   4760,  -2.66666675, -0.708333313,           1.
   4761,          -3.,     -0.40625,           1.
   4762,  -3.33333325, -0.104166701,           1.
   4763,  -3.66666675,  0.197916701,           1.
   4764,  -2.33333325,  -1.01041663,          1.5
   4765,  -2.66666675, -0.708333313,          1.5
   4766,          -3.,     -0.40625,          1.5
   4767,  -3.33333325, -0.104166701,          1.5
   4768,  -3.66666675,  0.197916701,          1.5
   4769,  -2.33333325,  -1.10416663,         -1.5
   4770,  -2.66666675, -0.833333313,         -1.5
   4771,          -3.,      -0.5625,         -1.5
   4772,  -3.33333325, -0.291666687,         -1.5
   4773,  -3.66666675, -0.0208333116,         -1.5
   4774,  -2.33333325,  -1.10416663,          -1.
   4775,  -2.66666675, -0.833333313,          -1.
   4776,          -3.,      -0.5625,          -1.
   4777,  -3.33333325, -0.291666687,          -1.
   4778,  -3.66666675, -0.0208333116,          -1.
   4779,  -2.33333325,  -1.10416663,         -0.5
   4780,  -2.66666675, -0.833333313,         -0.5
   4781,          -3.,      -0.5625,         -0.5
   4782,  -3.33333325, -0.291666687,         -0.5
   4783,  -3.66666675, -0.0208333116,         -0.5
   4784,  -2.33333325,  -1.10416663,           0.
   4785,  -2.66666675, -0.833333313,           0.
   4786,          -3.,      -0.5625,           0.
   4787,  -3.33333325, -0.291666687,           0.
   4788,  -3.66666675, -0.0208333116,           0.
   4789,  -2.33333325,  -1.10416663,          0.5
   4790,  -2.66666675, -0.833333313,          0.5
   4791,          -3.,      -0.5625,          0.5
   4792,  -3.33333325, -0.291666687,          0.5
   4793,  -3.66666675, -0.0208333116,          0.5
   4794,  -2.33333325,  -1.10416663,           1.
   4795,  -2.66666675, -0.833333313,           1.
   4796,          -3.,      -0.5625,           1.
   4797,  -3.33333325, -0.291666687,           1.
   4798,  -3.66666675, -0.0208333116,           1.
   4799,  -2.33333325,  -1.10416663,          1.5
   4800,  -2.66666675, -0.833333313,          1.5
   4801,          -3.,      -0.5625,          1.5
   4802,  -3.33333325, -0.291666687,          1.5
   4803,  -3.66666675, -0.0208333116,          1.5
   4804,  -2.33333325,  -1.19791663,         -1.5
   4805,  -2.66666675, -0.958333313,         -1.5
   4806,          -3.,     -0.71875,         -1.5
   4807,  -3.33333325, -0.479166687,         -1.5
   4808,  -3.66666675, -0.239583313,         -1.5
   4809,  -2.33333325,  -1.19791663,          -1.
   4810,  -2.66666675, -0.958333313,          -1.
   4811,          -3.,     -0.71875,          -1.
   4812,  -3.33333325, -0.479166687,          -1.
   4813,  -3.66666675, -0.239583313,          -1.
   4814,  -2.33333325,  -1.19791663,         -0.5
   4815,  -2.66666675, -0.958333313,         -0.5
   4816,          -3.,     -0.71875,         -0.5
   4817,  -3.33333325, -0.479166687,         -0.5
   4818,  -3.66666675, -0.239583313,         -0.5
   4819,  -2.33333325,  -1.19791663,           0.
   4820,  -2.66666675, -0.958333313,           0.
   4821,          -3.,     -0.71875,           0.
   4822,  -3.33333325, -0.479166687,           0.
   4823,  -3.66666675, -0.239583313,           0.
   4824,  -2.33333325,  -1.19791663,          0.5
   4825,  -2.66666675, -0.958333313,          0.5
   4826,          -3.,     -0.71875,          0.5
   4827,  -3.33333325, -0.479166687,          0.5
   4828,  -3.66666675, -0.239583313,          0.5
   4829,  -2.33333325,  -1.19791663,           1.
   4830,  -2.66666675, -0.958333313,           1.
   4831,          -3.,     -0.71875,           1.
   4832,  -3.33333325, -0.479166687,           1.
   4833,  -3.66666675, -0.239583313,           1.
   4834,  -2.33333325,  -1.19791663,          1.5
   4835,  -2.66666675, -0.958333313,          1.5
   4836,          -3.,     -0.71875,          1.5
   4837,  -3.33333325, -0.479166687,          1.5
   4838,  -3.66666675, -0.239583313,          1.5
   4839,  -2.33333325,  -1.29166663,         -1.5
   4840,  -2.66666675,  -1.08333337,         -1.5
   4841,          -3.,       -0.875,         -1.5
   4842,  -3.33333325, -0.666666687,         -1.5
   4843,  -3.66666675, -0.458333313,         -1.5
   4844,  -2.33333325,  -1.29166663,          -1.
   4845,  -2.66666675,  -1.08333337,          -1.
   4846,          -3.,       -0.875,          -1.
   4847,  -3.33333325, -0.666666687,          -1.
   4848,  -3.66666675, -0.458333313,          -1.
   4849,  -2.33333325,  -1.29166663,         -0.5
   4850,  -2.66666675,  -1.08333337,         -0.5
   4851,          -3.,       -0.875,         -0.5
   4852,  -3.33333325, -0.666666687,         -0.5
   4853,  -3.66666675, -0.458333313,         -0.5
   4854,  -2.33333325,  -1.29166663,           0.
   4855,  -2.66666675,  -1.08333337,           0.
   4856,          -3.,       -0.875,           0.
   4857,  -3.33333325, -0.666666687,           0.
   4858,  -3.66666675, -0.458333313,           0.
   4859,  -2.33333325,  -1.29166663,          0.5
   4860,  -2.66666675,  -1.08333337,          0.5
   4861,          -3.,       -0.875,          0.5
   4862,  -3.33333325, -0.666666687,          0.5
   4863,  -3.66666675, -0.458333313,          0.5
   4864,  -2.33333325,  -1.29166663,           1.
   4865,  -2.66666675,  -1.08333337,           1.
   4866,          -3.,       -0.875,           1.
   4867,  -3.33333325, -0.666666687,           1.
   4868,  -3.66666675, -0.458333313,           1.
   4869,  -2.33333325,  -1.29166663,          1.5
   4870,  -2.66666675,  -1.08333337,          1.5
   4871,          -3.,       -0.875,          1.5
   4872,  -3.33333325, -0.666666687,          1.5
   4873,  -3.66666675, -0.458333313,          1.5
   4874,  -2.33333325,     -1.40625,         -1.5
   4875,  -2.66666675,        -1.25,         -1.5
   4876,          -3.,     -1.09375,         -1.5
   4877,  -3.33333325,      -0.9375,         -1.5
   4878,  -3.66666675,     -0.78125,         -1.5
   4879,  -2.33333325,     -1.40625,          -1.
   4880,  -2.66666675,        -1.25,          -1.
   4881,          -3.,     -1.09375,          -1.
   4882,  -3.33333325,      -0.9375,          -1.
   4883,  -3.66666675,     -0.78125,          -1.
   4884,  -2.33333325,     -1.40625,         -0.5
   4885,  -2.66666675,        -1.25,         -0.5
   4886,          -3.,     -1.09375,         -0.5
   4887,  -3.33333325,      -0.9375,         -0.5
   4888,  -3.66666675,     -0.78125,         -0.5
   4889,  -2.33333325,     -1.40625,           0.
   4890,  -2.66666675,        -1.25,           0.
   4891,          -3.,     -1.09375,           0.
   4892,  -3.33333325,      -0.9375,           0.
   4893,  -3.66666675,     -0.78125,           0.
   4894,  -2.33333325,     -1.40625,          0.5
   4895,  -2.66666675,        -1.25,          0.5
   4896,          -3.,     -1.09375,          0.5
   4897,  -3.33333325,      -0.9375,          0.5
   4898,  -3.66666675,     -0.78125,          0.5
   4899,  -2.33333325,     -1.40625,           1.
   4900,  -2.66666675,        -1.25,           1.
   4901,          -3.,     -1.09375,           1.
   4902,  -3.33333325,      -0.9375,           1.
   4903,  -3.66666675,     -0.78125,           1.
   4904,  -2.33333325,     -1.40625,          1.5
   4905,  -2.66666675,        -1.25,          1.5
   4906,          -3.,     -1.09375,          1.5
   4907,  -3.33333325,      -0.9375,          1.5
   4908,  -3.66666675,     -0.78125,          1.5
   4909,  -2.33333325,  -1.52083337,         -1.5
   4910,  -2.66666675,  -1.41666663,         -1.5
   4911,          -3.,      -1.3125,         -1.5
   4912,  -3.33333325,  -1.20833337,         -1.5
   4913,  -3.66666675,  -1.10416663,         -1.5
   4914,  -2.33333325,  -1.52083337,          -1.
   4915,  -2.66666675,  -1.41666663,          -1.
   4916,          -3.,      -1.3125,          -1.
   4917,  -3.33333325,  -1.20833337,          -1.
   4918,  -3.66666675,  -1.10416663,          -1.
   4919,  -2.33333325,  -1.52083337,         -0.5
   4920,  -2.66666675,  -1.41666663,         -0.5
   4921,          -3.,      -1.3125,         -0.5
   4922,  -3.33333325,  -1.20833337,         -0.5
   4923,  -3.66666675,  -1.10416663,         -0.5
   4924,  -2.33333325,  -1.52083337,           0.
   4925,  -2.66666675,  -1.41666663,           0.
   4926,          -3.,      -1.3125,           0.
   4927,  -3.33333325,  -1.20833337,           0.
   4928,  -3.66666675,  -1.10416663,           0.
   4929,  -2.33333325,  -1.52083337,          0.5
   4930,  -2.66666675,  -1.41666663,          0.5
   4931,          -3.,      -1.3125,          0.5
   4932,  -3.33333325,  -1.20833337,          0.5
   4933,  -3.66666675,  -1.10416663,          0.5
   4934,  -2.33333325,  -1.52083337,           1.
   4935,  -2.66666675,  -1.41666663,           1.
   4936,          -3.,      -1.3125,           1.
   4937,  -3.33333325,  -1.20833337,           1.
   4938,  -3.66666675,  -1.10416663,           1.
   4939,  -2.33333325,  -1.52083337,          1.5
   4940,  -2.66666675,  -1.41666663,          1.5
   4941,          -3.,      -1.3125,          1.5
   4942,  -3.33333325,  -1.20833337,          1.5
   4943,  -3.66666675,  -1.10416663,          1.5
   4944,  -2.33333325,  -1.63541663,         -1.5
   4945,  -2.66666675,  -1.58333337,         -1.5
   4946,          -3.,     -1.53125,         -1.5
   4947,  -3.33333325,  -1.47916663,         -1.5
   4948,  -3.66666675,  -1.42708337,         -1.5
   4949,  -2.33333325,  -1.63541663,          -1.
   4950,  -2.66666675,  -1.58333337,          -1.
   4951,          -3.,     -1.53125,          -1.
   4952,  -3.33333325,  -1.47916663,          -1.
   4953,  -3.66666675,  -1.42708337,          -1.
   4954,  -2.33333325,  -1.63541663,         -0.5
   4955,  -2.66666675,  -1.58333337,         -0.5
   4956,          -3.,     -1.53125,         -0.5
   4957,  -3.33333325,  -1.47916663,         -0.5
   4958,  -3.66666675,  -1.42708337,         -0.5
   4959,  -2.33333325,  -1.63541663,           0.
   4960,  -2.66666675,  -1.58333337,           0.
   4961,          -3.,     -1.53125,           0.
   4962,  -3.33333325,  -1.47916663,           0.
   4963,  -3.66666675,  -1.42708337,           0.
   4964,  -2.33333325,  -1.63541663,          0.5
   4965,  -2.66666675,  -1.58333337,          0.5
   4966,          -3.,     -1.53125,          0.5
   4967,  -3.33333325,  -1.47916663,          0.5
   4968,  -3.66666675,  -1.42708337,          0.5
   4969,  -2.33333325,  -1.63541663,           1.
   4970,  -2.66666675,  -1.58333337,           1.
   4971,          -3.,     -1.53125,           1.
   4972,  -3.33333325,  -1.47916663,           1.
   4973,  -3.66666675,  -1.42708337,           1.
   4974,  -2.33333325,  -1.63541663,          1.5
   4975,  -2.66666675,  -1.58333337,          1.5
   4976,          -3.,     -1.53125,          1.5
   4977,  -3.33333325,  -1.47916663,          1.5
   4978,  -3.66666675,  -1.42708337,          1.5
   9999, -17.        ,  -1.        ,          0.
*Element, type=C3D8R
  1,    1,   49,  645,   68,   94,  717, 2823,  687
  2,   49,   50,  646,  645,  717,  718, 2824, 2823
  3,   50,   51,  647,  646,  718,  719, 2825, 2824
  4,   51,   52,  648,  647,  719,  720, 2826, 2825
  5,   52,   53,  649,  648,  720,  721, 2827, 2826
  6,   53,   54,  650,  649,  721,  722, 2828, 2827
  7,   54,   55,  651,  650,  722,  723, 2829, 2828
  8,   55,    2,   56,  651,  723,  108,  702, 2829
  9,   68,  645,  652,   67,  687, 2823, 2830,  688
 10,  645,  646,  653,  652, 2823, 2824, 2831, 2830
 11,  646,  647,  654,  653, 2824, 2825, 2832, 2831
 12,  647,  648,  655,  654, 2825, 2826, 2833, 2832
 13,  648,  649,  656,  655, 2826, 2827, 2834, 2833
 14,  649,  650,  657,  656, 2827, 2828, 2835, 2834
 15,  650,  651,  658,  657, 2828, 2829, 2836, 2835
 16,  651,   56,   57,  658, 2829,  702,  703, 2836
 17,   67,  652,  659,   66,  688, 2830, 2837,  689
 18,  652,  653,  660,  659, 2830, 2831, 2838, 2837
 19,  653,  654,  661,  660, 2831, 2832, 2839, 2838
 20,  654,  655,  662,  661, 2832, 2833, 2840, 2839
 21,  655,  656,  663,  662, 2833, 2834, 2841, 2840
 22,  656,  657,  664,  663, 2834, 2835, 2842, 2841
 23,  657,  658,  665,  664, 2835, 2836, 2843, 2842
 24,  658,   57,   58,  665, 2836,  703,  704, 2843
 25,   66,  659,   65,    4,  689, 2837,  752,   93
 26,  659,  660,   64,   65, 2837, 2838,  753,  752
 27,  660,  661,   63,   64, 2838, 2839,  754,  753
 28,  661,  662,   62,   63, 2839, 2840,  755,  754
 29,  662,  663,   61,   62, 2840, 2841,  756,  755
 30,  663,  664,   60,   61, 2841, 2842,  757,  756
 31,  664,  665,   59,   60, 2842, 2843,  758,  757
 32,  665,   58,    3,   59, 2843,  704,   99,  758
 33,   94,  717, 2823,  687,   95,  724, 2844,  690
 34,  717,  718, 2824, 2823,  724,  725, 2845, 2844
 35,  718,  719, 2825, 2824,  725,  726, 2846, 2845
 36,  719,  720, 2826, 2825,  726,  727, 2847, 2846
 37,  720,  721, 2827, 2826,  727,  728, 2848, 2847
 38,  721,  722, 2828, 2827,  728,  729, 2849, 2848
 39,  722,  723, 2829, 2828,  729,  730, 2850, 2849
 40,  723,  108,  702, 2829,  730,  107,  705, 2850
 41,  687, 2823, 2830,  688,  690, 2844, 2851,  691
 42, 2823, 2824, 2831, 2830, 2844, 2845, 2852, 2851
 43, 2824, 2825, 2832, 2831, 2845, 2846, 2853, 2852
 44, 2825, 2826, 2833, 2832, 2846, 2847, 2854, 2853
 45, 2826, 2827, 2834, 2833, 2847, 2848, 2855, 2854
 46, 2827, 2828, 2835, 2834, 2848, 2849, 2856, 2855
 47, 2828, 2829, 2836, 2835, 2849, 2850, 2857, 2856
 48, 2829,  702,  703, 2836, 2850,  705,  706, 2857
 49,  688, 2830, 2837,  689,  691, 2851, 2858,  692
 50, 2830, 2831, 2838, 2837, 2851, 2852, 2859, 2858
 51, 2831, 2832, 2839, 2838, 2852, 2853, 2860, 2859
 52, 2832, 2833, 2840, 2839, 2853, 2854, 2861, 2860
 53, 2833, 2834, 2841, 2840, 2854, 2855, 2862, 2861
 54, 2834, 2835, 2842, 2841, 2855, 2856, 2863, 2862
 55, 2835, 2836, 2843, 2842, 2856, 2857, 2864, 2863
 56, 2836,  703,  704, 2843, 2857,  706,  707, 2864
 57,  689, 2837,  752,   93,  692, 2858,  759,   92
 58, 2837, 2838,  753,  752, 2858, 2859,  760,  759
 59, 2838, 2839,  754,  753, 2859, 2860,  761,  760
 60, 2839, 2840,  755,  754, 2860, 2861,  762,  761
 61, 2840, 2841,  756,  755, 2861, 2862,  763,  762
 62, 2841, 2842,  757,  756, 2862, 2863,  764,  763
 63, 2842, 2843,  758,  757, 2863, 2864,  765,  764
 64, 2843,  704,   99,  758, 2864,  707,  100,  765
 65,   95,  724, 2844,  690,   96,  731, 2865,  693
 66,  724,  725, 2845, 2844,  731,  732, 2866, 2865
 67,  725,  726, 2846, 2845,  732,  733, 2867, 2866
 68,  726,  727, 2847, 2846,  733,  734, 2868, 2867
 69,  727,  728, 2848, 2847,  734,  735, 2869, 2868
 70,  728,  729, 2849, 2848,  735,  736, 2870, 2869
 71,  729,  730, 2850, 2849,  736,  737, 2871, 2870
 72,  730,  107,  705, 2850,  737,  106,  708, 2871
 73,  690, 2844, 2851,  691,  693, 2865, 2872,  694
 74, 2844, 2845, 2852, 2851, 2865, 2866, 2873, 2872
 75, 2845, 2846, 2853, 2852, 2866, 2867, 2874, 2873
 76, 2846, 2847, 2854, 2853, 2867, 2868, 2875, 2874
 77, 2847, 2848, 2855, 2854, 2868, 2869, 2876, 2875
 78, 2848, 2849, 2856, 2855, 2869, 2870, 2877, 2876
 79, 2849, 2850, 2857, 2856, 2870, 2871, 2878, 2877
 80, 2850,  705,  706, 2857, 2871,  708,  709, 2878
 81,  691, 2851, 2858,  692,  694, 2872, 2879,  695
 82, 2851, 2852, 2859, 2858, 2872, 2873, 2880, 2879
 83, 2852, 2853, 2860, 2859, 2873, 2874, 2881, 2880
 84, 2853, 2854, 2861, 2860, 2874, 2875, 2882, 2881
 85, 2854, 2855, 2862, 2861, 2875, 2876, 2883, 2882
 86, 2855, 2856, 2863, 2862, 2876, 2877, 2884, 2883
 87, 2856, 2857, 2864, 2863, 2877, 2878, 2885, 2884
 88, 2857,  706,  707, 2864, 2878,  709,  710, 2885
 89,  692, 2858,  759,   92,  695, 2879,  766,   91
 90, 2858, 2859,  760,  759, 2879, 2880,  767,  766
 91, 2859, 2860,  761,  760, 2880, 2881,  768,  767
 92, 2860, 2861,  762,  761, 2881, 2882,  769,  768
 93, 2861, 2862,  763,  762, 2882, 2883,  770,  769
 94, 2862, 2863,  764,  763, 2883, 2884,  771,  770
 95, 2863, 2864,  765,  764, 2884, 2885,  772,  771
 96, 2864,  707,  100,  765, 2885,  710,  101,  772
 97,   96,  731, 2865,  693,   97,  738, 2886,  696
 98,  731,  732, 2866, 2865,  738,  739, 2887, 2886
 99,  732,  733, 2867, 2866,  739,  740, 2888, 2887
100,  733,  734, 2868, 2867,  740,  741, 2889, 2888
101,  734,  735, 2869, 2868,  741,  742, 2890, 2889
102,  735,  736, 2870, 2869,  742,  743, 2891, 2890
103,  736,  737, 2871, 2870,  743,  744, 2892, 2891
104,  737,  106,  708, 2871,  744,  105,  711, 2892
105,  693, 2865, 2872,  694,  696, 2886, 2893,  697
106, 2865, 2866, 2873, 2872, 2886, 2887, 2894, 2893
107, 2866, 2867, 2874, 2873, 2887, 2888, 2895, 2894
108, 2867, 2868, 2875, 2874, 2888, 2889, 2896, 2895
109, 2868, 2869, 2876, 2875, 2889, 2890, 2897, 2896
110, 2869, 2870, 2877, 2876, 2890, 2891, 2898, 2897
111, 2870, 2871, 2878, 2877, 2891, 2892, 2899, 2898
112, 2871,  708,  709, 2878, 2892,  711,  712, 2899
113,  694, 2872, 2879,  695,  697, 2893, 2900,  698
114, 2872, 2873, 2880, 2879, 2893, 2894, 2901, 2900
115, 2873, 2874, 2881, 2880, 2894, 2895, 2902, 2901
116, 2874, 2875, 2882, 2881, 2895, 2896, 2903, 2902
117, 2875, 2876, 2883, 2882, 2896, 2897, 2904, 2903
118, 2876, 2877, 2884, 2883, 2897, 2898, 2905, 2904
119, 2877, 2878, 2885, 2884, 2898, 2899, 2906, 2905
120, 2878,  709,  710, 2885, 2899,  712,  713, 2906
121,  695, 2879,  766,   91,  698, 2900,  773,   90
122, 2879, 2880,  767,  766, 2900, 2901,  774,  773
123, 2880, 2881,  768,  767, 2901, 2902,  775,  774
124, 2881, 2882,  769,  768, 2902, 2903,  776,  775
125, 2882, 2883,  770,  769, 2903, 2904,  777,  776
126, 2883, 2884,  771,  770, 2904, 2905,  778,  777
127, 2884, 2885,  772,  771, 2905, 2906,  779,  778
128, 2885,  710,  101,  772, 2906,  713,  102,  779
129,   97,  738, 2886,  696,   98,  745, 2907,  699
130,  738,  739, 2887, 2886,  745,  746, 2908, 2907
131,  739,  740, 2888, 2887,  746,  747, 2909, 2908
132,  740,  741, 2889, 2888,  747,  748, 2910, 2909
133,  741,  742, 2890, 2889,  748,  749, 2911, 2910
134,  742,  743, 2891, 2890,  749,  750, 2912, 2911
135,  743,  744, 2892, 2891,  750,  751, 2913, 2912
136,  744,  105,  711, 2892,  751,  104,  714, 2913
137,  696, 2886, 2893,  697,  699, 2907, 2914,  700
138, 2886, 2887, 2894, 2893, 2907, 2908, 2915, 2914
139, 2887, 2888, 2895, 2894, 2908, 2909, 2916, 2915
140, 2888, 2889, 2896, 2895, 2909, 2910, 2917, 2916
141, 2889, 2890, 2897, 2896, 2910, 2911, 2918, 2917
142, 2890, 2891, 2898, 2897, 2911, 2912, 2919, 2918
143, 2891, 2892, 2899, 2898, 2912, 2913, 2920, 2919
144, 2892,  711,  712, 2899, 2913,  714,  715, 2920
145,  697, 2893, 2900,  698,  700, 2914, 2921,  701
146, 2893, 2894, 2901, 2900, 2914, 2915, 2922, 2921
147, 2894, 2895, 2902, 2901, 2915, 2916, 2923, 2922
148, 2895, 2896, 2903, 2902, 2916, 2917, 2924, 2923
149, 2896, 2897, 2904, 2903, 2917, 2918, 2925, 2924
150, 2897, 2898, 2905, 2904, 2918, 2919, 2926, 2925
151, 2898, 2899, 2906, 2905, 2919, 2920, 2927, 2926
152, 2899,  712,  713, 2906, 2920,  715,  716, 2927
153,  698, 2900,  773,   90,  701, 2921,  780,   89
154, 2900, 2901,  774,  773, 2921, 2922,  781,  780
155, 2901, 2902,  775,  774, 2922, 2923,  782,  781
156, 2902, 2903,  776,  775, 2923, 2924,  783,  782
157, 2903, 2904,  777,  776, 2924, 2925,  784,  783
158, 2904, 2905,  778,  777, 2925, 2926,  785,  784
159, 2905, 2906,  779,  778, 2926, 2927,  786,  785
160, 2906,  713,  102,  779, 2927,  716,  103,  786
161,   98,  745, 2907,  699,    5,   69,  666,   88
162,  745,  746, 2908, 2907,   69,   70,  667,  666
163,  746,  747, 2909, 2908,   70,   71,  668,  667
164,  747,  748, 2910, 2909,   71,   72,  669,  668
165,  748,  749, 2911, 2910,   72,   73,  670,  669
166,  749,  750, 2912, 2911,   73,   74,  671,  670
167,  750,  751, 2913, 2912,   74,   75,  672,  671
168,  751,  104,  714, 2913,   75,    6,   76,  672
169,  699, 2907, 2914,  700,   88,  666,  673,   87
170, 2907, 2908, 2915, 2914,  666,  667,  674,  673
171, 2908, 2909, 2916, 2915,  667,  668,  675,  674
172, 2909, 2910, 2917, 2916,  668,  669,  676,  675
173, 2910, 2911, 2918, 2917,  669,  670,  677,  676
174, 2911, 2912, 2919, 2918,  670,  671,  678,  677
175, 2912, 2913, 2920, 2919,  671,  672,  679,  678
176, 2913,  714,  715, 2920,  672,   76,   77,  679
177,  700, 2914, 2921,  701,   87,  673,  680,   86
178, 2914, 2915, 2922, 2921,  673,  674,  681,  680
179, 2915, 2916, 2923, 2922,  674,  675,  682,  681
180, 2916, 2917, 2924, 2923,  675,  676,  683,  682
181, 2917, 2918, 2925, 2924,  676,  677,  684,  683
182, 2918, 2919, 2926, 2925,  677,  678,  685,  684
183, 2919, 2920, 2927, 2926,  678,  679,  686,  685
184, 2920,  715,  716, 2927,  679,   77,   78,  686
185,  701, 2921,  780,   89,   86,  680,   85,    8
186, 2921, 2922,  781,  780,  680,  681,   84,   85
187, 2922, 2923,  782,  781,  681,  682,   83,   84
188, 2923, 2924,  783,  782,  682,  683,   82,   83
189, 2924, 2925,  784,  783,  683,  684,   81,   82
190, 2925, 2926,  785,  784,  684,  685,   80,   81
191, 2926, 2927,  786,  785,  685,  686,   79,   80
192, 2927,  716,  103,  786,  686,   78,    7,   79
193,  138,  852, 2928,  822,    9,  109,  787,  132
194,  852,  853, 2929, 2928,  109,  110,  788,  787
195,  853,  854, 2930, 2929,  110,  111,  789,  788
196,  854,  855, 2931, 2930,  111,  112,  790,  789
197,  855,  856, 2932, 2931,  112,  113,  791,  790
198,  856,  857, 2933, 2932,  113,  114,  792,  791
199,  857,  858, 2934, 2933,  114,  115,  793,  792
200,  858,  142,  837, 2934,  115,   10,  116,  793
201,  822, 2928, 2935,  823,  132,  787,  794,  131
202, 2928, 2929, 2936, 2935,  787,  788,  795,  794
203, 2929, 2930, 2937, 2936,  788,  789,  796,  795
204, 2930, 2931, 2938, 2937,  789,  790,  797,  796
205, 2931, 2932, 2939, 2938,  790,  791,  798,  797
206, 2932, 2933, 2940, 2939,  791,  792,  799,  798
207, 2933, 2934, 2941, 2940,  792,  793,  800,  799
208, 2934,  837,  838, 2941,  793,  116,  117,  800
209,  823, 2935, 2942,  824,  131,  794,  801,  130
210, 2935, 2936, 2943, 2942,  794,  795,  802,  801
211, 2936, 2937, 2944, 2943,  795,  796,  803,  802
212, 2937, 2938, 2945, 2944,  796,  797,  804,  803
213, 2938, 2939, 2946, 2945,  797,  798,  805,  804
214, 2939, 2940, 2947, 2946,  798,  799,  806,  805
215, 2940, 2941, 2948, 2947,  799,  800,  807,  806
216, 2941,  838,  839, 2948,  800,  117,  118,  807
217,  824, 2942, 2949,  825,  130,  801,  808,  129
218, 2942, 2943, 2950, 2949,  801,  802,  809,  808
219, 2943, 2944, 2951, 2950,  802,  803,  810,  809
220, 2944, 2945, 2952, 2951,  803,  804,  811,  810
221, 2945, 2946, 2953, 2952,  804,  805,  812,  811
222, 2946, 2947, 2954, 2953,  805,  806,  813,  812
223, 2947, 2948, 2955, 2954,  806,  807,  814,  813
224, 2948,  839,  840, 2955,  807,  118,  119,  814
225,  825, 2949, 2956,  826,  129,  808,  815,  128
226, 2949, 2950, 2957, 2956,  808,  809,  816,  815
227, 2950, 2951, 2958, 2957,  809,  810,  817,  816
228, 2951, 2952, 2959, 2958,  810,  811,  818,  817
229, 2952, 2953, 2960, 2959,  811,  812,  819,  818
230, 2953, 2954, 2961, 2960,  812,  813,  820,  819
231, 2954, 2955, 2962, 2961,  813,  814,  821,  820
232, 2955,  840,  841, 2962,  814,  119,  120,  821
233,  826, 2956,  873,  133,  128,  815,  127,   12
234, 2956, 2957,  874,  873,  815,  816,  126,  127
235, 2957, 2958,  875,  874,  816,  817,  125,  126
236, 2958, 2959,  876,  875,  817,  818,  124,  125
237, 2959, 2960,  877,  876,  818,  819,  123,  124
238, 2960, 2961,  878,  877,  819,  820,  122,  123
239, 2961, 2962,  879,  878,  820,  821,  121,  122
240, 2962,  841,  141,  879,  821,  120,   11,  121
241,  137,  859, 2963,  827,  138,  852, 2928,  822
242,  859,  860, 2964, 2963,  852,  853, 2929, 2928
243,  860,  861, 2965, 2964,  853,  854, 2930, 2929
244,  861,  862, 2966, 2965,  854,  855, 2931, 2930
245,  862,  863, 2967, 2966,  855,  856, 2932, 2931
246,  863,  864, 2968, 2967,  856,  857, 2933, 2932
247,  864,  865, 2969, 2968,  857,  858, 2934, 2933
248,  865,  143,  842, 2969,  858,  142,  837, 2934
249,  827, 2963, 2970,  828,  822, 2928, 2935,  823
250, 2963, 2964, 2971, 2970, 2928, 2929, 2936, 2935
251, 2964, 2965, 2972, 2971, 2929, 2930, 2937, 2936
252, 2965, 2966, 2973, 2972, 2930, 2931, 2938, 2937
253, 2966, 2967, 2974, 2973, 2931, 2932, 2939, 2938
254, 2967, 2968, 2975, 2974, 2932, 2933, 2940, 2939
255, 2968, 2969, 2976, 2975, 2933, 2934, 2941, 2940
256, 2969,  842,  843, 2976, 2934,  837,  838, 2941
257,  828, 2970, 2977,  829,  823, 2935, 2942,  824
258, 2970, 2971, 2978, 2977, 2935, 2936, 2943, 2942
259, 2971, 2972, 2979, 2978, 2936, 2937, 2944, 2943
260, 2972, 2973, 2980, 2979, 2937, 2938, 2945, 2944
261, 2973, 2974, 2981, 2980, 2938, 2939, 2946, 2945
262, 2974, 2975, 2982, 2981, 2939, 2940, 2947, 2946
263, 2975, 2976, 2983, 2982, 2940, 2941, 2948, 2947
264, 2976,  843,  844, 2983, 2941,  838,  839, 2948
265,  829, 2977, 2984,  830,  824, 2942, 2949,  825
266, 2977, 2978, 2985, 2984, 2942, 2943, 2950, 2949
267, 2978, 2979, 2986, 2985, 2943, 2944, 2951, 2950
268, 2979, 2980, 2987, 2986, 2944, 2945, 2952, 2951
269, 2980, 2981, 2988, 2987, 2945, 2946, 2953, 2952
270, 2981, 2982, 2989, 2988, 2946, 2947, 2954, 2953
271, 2982, 2983, 2990, 2989, 2947, 2948, 2955, 2954
272, 2983,  844,  845, 2990, 2948,  839,  840, 2955
273,  830, 2984, 2991,  831,  825, 2949, 2956,  826
274, 2984, 2985, 2992, 2991, 2949, 2950, 2957, 2956
275, 2985, 2986, 2993, 2992, 2950, 2951, 2958, 2957
276, 2986, 2987, 2994, 2993, 2951, 2952, 2959, 2958
277, 2987, 2988, 2995, 2994, 2952, 2953, 2960, 2959
278, 2988, 2989, 2996, 2995, 2953, 2954, 2961, 2960
279, 2989, 2990, 2997, 2996, 2954, 2955, 2962, 2961
280, 2990,  845,  846, 2997, 2955,  840,  841, 2962
281,  831, 2991,  880,  134,  826, 2956,  873,  133
282, 2991, 2992,  881,  880, 2956, 2957,  874,  873
283, 2992, 2993,  882,  881, 2957, 2958,  875,  874
284, 2993, 2994,  883,  882, 2958, 2959,  876,  875
285, 2994, 2995,  884,  883, 2959, 2960,  877,  876
286, 2995, 2996,  885,  884, 2960, 2961,  878,  877
287, 2996, 2997,  886,  885, 2961, 2962,  879,  878
288, 2997,  846,  140,  886, 2962,  841,  141,  879
289,  136,  866, 2998,  832,  137,  859, 2963,  827
290,  866,  867, 2999, 2998,  859,  860, 2964, 2963
291,  867,  868, 3000, 2999,  860,  861, 2965, 2964
292,  868,  869, 3001, 3000,  861,  862, 2966, 2965
293,  869,  870, 3002, 3001,  862,  863, 2967, 2966
294,  870,  871, 3003, 3002,  863,  864, 2968, 2967
295,  871,  872, 3004, 3003,  864,  865, 2969, 2968
296,  872,  144,  847, 3004,  865,  143,  842, 2969
297,  832, 2998, 3005,  833,  827, 2963, 2970,  828
298, 2998, 2999, 3006, 3005, 2963, 2964, 2971, 2970
299, 2999, 3000, 3007, 3006, 2964, 2965, 2972, 2971
300, 3000, 3001, 3008, 3007, 2965, 2966, 2973, 2972
301, 3001, 3002, 3009, 3008, 2966, 2967, 2974, 2973
302, 3002, 3003, 3010, 3009, 2967, 2968, 2975, 2974
303, 3003, 3004, 3011, 3010, 2968, 2969, 2976, 2975
304, 3004,  847,  848, 3011, 2969,  842,  843, 2976
305,  833, 3005, 3012,  834,  828, 2970, 2977,  829
306, 3005, 3006, 3013, 3012, 2970, 2971, 2978, 2977
307, 3006, 3007, 3014, 3013, 2971, 2972, 2979, 2978
308, 3007, 3008, 3015, 3014, 2972, 2973, 2980, 2979
309, 3008, 3009, 3016, 3015, 2973, 2974, 2981, 2980
310, 3009, 3010, 3017, 3016, 2974, 2975, 2982, 2981
311, 3010, 3011, 3018, 3017, 2975, 2976, 2983, 2982
312, 3011,  848,  849, 3018, 2976,  843,  844, 2983
313,  834, 3012, 3019,  835,  829, 2977, 2984,  830
314, 3012, 3013, 3020, 3019, 2977, 2978, 2985, 2984
315, 3013, 3014, 3021, 3020, 2978, 2979, 2986, 2985
316, 3014, 3015, 3022, 3021, 2979, 2980, 2987, 2986
317, 3015, 3016, 3023, 3022, 2980, 2981, 2988, 2987
318, 3016, 3017, 3024, 3023, 2981, 2982, 2989, 2988
319, 3017, 3018, 3025, 3024, 2982, 2983, 2990, 2989
320, 3018,  849,  850, 3025, 2983,  844,  845, 2990
321,  835, 3019, 3026,  836,  830, 2984, 2991,  831
322, 3019, 3020, 3027, 3026, 2984, 2985, 2992, 2991
323, 3020, 3021, 3028, 3027, 2985, 2986, 2993, 2992
324, 3021, 3022, 3029, 3028, 2986, 2987, 2994, 2993
325, 3022, 3023, 3030, 3029, 2987, 2988, 2995, 2994
326, 3023, 3024, 3031, 3030, 2988, 2989, 2996, 2995
327, 3024, 3025, 3032, 3031, 2989, 2990, 2997, 2996
328, 3025,  850,  851, 3032, 2990,  845,  846, 2997
329,  836, 3026,  887,  135,  831, 2991,  880,  134
330, 3026, 3027,  888,  887, 2991, 2992,  881,  880
331, 3027, 3028,  889,  888, 2992, 2993,  882,  881
332, 3028, 3029,  890,  889, 2993, 2994,  883,  882
333, 3029, 3030,  891,  890, 2994, 2995,  884,  883
334, 3030, 3031,  892,  891, 2995, 2996,  885,  884
335, 3031, 3032,  893,  892, 2996, 2997,  886,  885
336, 3032,  851,  139,  893, 2997,  846,  140,  886
337,    1,   49,  717,   94,  136,  866, 2998,  832
338,   49,   50,  718,  717,  866,  867, 2999, 2998
339,   50,   51,  719,  718,  867,  868, 3000, 2999
340,   51,   52,  720,  719,  868,  869, 3001, 3000
341,   52,   53,  721,  720,  869,  870, 3002, 3001
342,   53,   54,  722,  721,  870,  871, 3003, 3002
343,   54,   55,  723,  722,  871,  872, 3004, 3003
344,   55,    2,  108,  723,  872,  144,  847, 3004
345,   94,  717,  724,   95,  832, 2998, 3005,  833
346,  717,  718,  725,  724, 2998, 2999, 3006, 3005
347,  718,  719,  726,  725, 2999, 3000, 3007, 3006
348,  719,  720,  727,  726, 3000, 3001, 3008, 3007
349,  720,  721,  728,  727, 3001, 3002, 3009, 3008
350,  721,  722,  729,  728, 3002, 3003, 3010, 3009
351,  722,  723,  730,  729, 3003, 3004, 3011, 3010
352,  723,  108,  107,  730, 3004,  847,  848, 3011
353,   95,  724,  731,   96,  833, 3005, 3012,  834
354,  724,  725,  732,  731, 3005, 3006, 3013, 3012
355,  725,  726,  733,  732, 3006, 3007, 3014, 3013
356,  726,  727,  734,  733, 3007, 3008, 3015, 3014
357,  727,  728,  735,  734, 3008, 3009, 3016, 3015
358,  728,  729,  736,  735, 3009, 3010, 3017, 3016
359,  729,  730,  737,  736, 3010, 3011, 3018, 3017
360,  730,  107,  106,  737, 3011,  848,  849, 3018
361,   96,  731,  738,   97,  834, 3012, 3019,  835
362,  731,  732,  739,  738, 3012, 3013, 3020, 3019
363,  732,  733,  740,  739, 3013, 3014, 3021, 3020
364,  733,  734,  741,  740, 3014, 3015, 3022, 3021
365,  734,  735,  742,  741, 3015, 3016, 3023, 3022
366,  735,  736,  743,  742, 3016, 3017, 3024, 3023
367,  736,  737,  744,  743, 3017, 3018, 3025, 3024
368,  737,  106,  105,  744, 3018,  849,  850, 3025
369,   97,  738,  745,   98,  835, 3019, 3026,  836
370,  738,  739,  746,  745, 3019, 3020, 3027, 3026
371,  739,  740,  747,  746, 3020, 3021, 3028, 3027
372,  740,  741,  748,  747, 3021, 3022, 3029, 3028
373,  741,  742,  749,  748, 3022, 3023, 3030, 3029
374,  742,  743,  750,  749, 3023, 3024, 3031, 3030
375,  743,  744,  751,  750, 3024, 3025, 3032, 3031
376,  744,  105,  104,  751, 3025,  850,  851, 3032
377,   98,  745,   69,    5,  836, 3026,  887,  135
378,  745,  746,   70,   69, 3026, 3027,  888,  887
379,  746,  747,   71,   70, 3027, 3028,  889,  888
380,  747,  748,   72,   71, 3028, 3029,  890,  889
381,  748,  749,   73,   72, 3029, 3030,  891,  890
382,  749,  750,   74,   73, 3030, 3031,  892,  891
383,  750,  751,   75,   74, 3031, 3032,  893,  892
384,  751,  104,    6,   75, 3032,  851,  139,  893
385,  135, 1125, 3033,  887,    5,  145,  894,   69
386, 1125, 1126, 3034, 3033,  145,  146,  895,  894
387, 1126, 1127, 3035, 3034,  146,  147,  896,  895
388, 1127, 1128, 3036, 3035,  147,  148,  897,  896
389, 1128, 1129, 3037, 3036,  148,  149,  898,  897
390, 1129, 1130, 3038, 3037,  149,  150,  899,  898
391, 1130, 1131, 3039, 3038,  150,  151,  900,  899
392, 1131, 1132, 3040, 3039,  151,  152,  901,  900
393, 1132, 1133, 3041, 3040,  152,  153,  902,  901
394, 1133, 1134, 3042, 3041,  153,  154,  903,  902
395, 1134, 1135, 3043, 3042,  154,  155,  904,  903
396, 1135, 1136, 3044, 3043,  155,  156,  905,  904
397, 1136, 1137, 3045, 3044,  156,  157,  906,  905
398, 1137, 1138, 3046, 3045,  157,  158,  907,  906
399, 1138, 1139, 3047, 3046,  158,  159,  908,  907
400, 1139,  222, 1104, 3047,  159,   13,  160,  908
401,  887, 3033, 3048,  888,   69,  894,  909,   70
402, 3033, 3034, 3049, 3048,  894,  895,  910,  909
403, 3034, 3035, 3050, 3049,  895,  896,  911,  910
404, 3035, 3036, 3051, 3050,  896,  897,  912,  911
405, 3036, 3037, 3052, 3051,  897,  898,  913,  912
406, 3037, 3038, 3053, 3052,  898,  899,  914,  913
407, 3038, 3039, 3054, 3053,  899,  900,  915,  914
408, 3039, 3040, 3055, 3054,  900,  901,  916,  915
409, 3040, 3041, 3056, 3055,  901,  902,  917,  916
410, 3041, 3042, 3057, 3056,  902,  903,  918,  917
411, 3042, 3043, 3058, 3057,  903,  904,  919,  918
412, 3043, 3044, 3059, 3058,  904,  905,  920,  919
413, 3044, 3045, 3060, 3059,  905,  906,  921,  920
414, 3045, 3046, 3061, 3060,  906,  907,  922,  921
415, 3046, 3047, 3062, 3061,  907,  908,  923,  922
416, 3047, 1104, 1105, 3062,  908,  160,  161,  923
417,  888, 3048, 3063,  889,   70,  909,  924,   71
418, 3048, 3049, 3064, 3063,  909,  910,  925,  924
419, 3049, 3050, 3065, 3064,  910,  911,  926,  925
420, 3050, 3051, 3066, 3065,  911,  912,  927,  926
421, 3051, 3052, 3067, 3066,  912,  913,  928,  927
422, 3052, 3053, 3068, 3067,  913,  914,  929,  928
423, 3053, 3054, 3069, 3068,  914,  915,  930,  929
424, 3054, 3055, 3070, 3069,  915,  916,  931,  930
425, 3055, 3056, 3071, 3070,  916,  917,  932,  931
426, 3056, 3057, 3072, 3071,  917,  918,  933,  932
427, 3057, 3058, 3073, 3072,  918,  919,  934,  933
428, 3058, 3059, 3074, 3073,  919,  920,  935,  934
429, 3059, 3060, 3075, 3074,  920,  921,  936,  935
430, 3060, 3061, 3076, 3075,  921,  922,  937,  936
431, 3061, 3062, 3077, 3076,  922,  923,  938,  937
432, 3062, 1105, 1106, 3077,  923,  161,  162,  938
433,  889, 3063, 3078,  890,   71,  924,  939,   72
434, 3063, 3064, 3079, 3078,  924,  925,  940,  939
435, 3064, 3065, 3080, 3079,  925,  926,  941,  940
436, 3065, 3066, 3081, 3080,  926,  927,  942,  941
437, 3066, 3067, 3082, 3081,  927,  928,  943,  942
438, 3067, 3068, 3083, 3082,  928,  929,  944,  943
439, 3068, 3069, 3084, 3083,  929,  930,  945,  944
440, 3069, 3070, 3085, 3084,  930,  931,  946,  945
441, 3070, 3071, 3086, 3085,  931,  932,  947,  946
442, 3071, 3072, 3087, 3086,  932,  933,  948,  947
443, 3072, 3073, 3088, 3087,  933,  934,  949,  948
444, 3073, 3074, 3089, 3088,  934,  935,  950,  949
445, 3074, 3075, 3090, 3089,  935,  936,  951,  950
446, 3075, 3076, 3091, 3090,  936,  937,  952,  951
447, 3076, 3077, 3092, 3091,  937,  938,  953,  952
448, 3077, 1106, 1107, 3092,  938,  162,  163,  953
449,  890, 3078, 3093,  891,   72,  939,  954,   73
450, 3078, 3079, 3094, 3093,  939,  940,  955,  954
451, 3079, 3080, 3095, 3094,  940,  941,  956,  955
452, 3080, 3081, 3096, 3095,  941,  942,  957,  956
453, 3081, 3082, 3097, 3096,  942,  943,  958,  957
454, 3082, 3083, 3098, 3097,  943,  944,  959,  958
455, 3083, 3084, 3099, 3098,  944,  945,  960,  959
456, 3084, 3085, 3100, 3099,  945,  946,  961,  960
457, 3085, 3086, 3101, 3100,  946,  947,  962,  961
458, 3086, 3087, 3102, 3101,  947,  948,  963,  962
459, 3087, 3088, 3103, 3102,  948,  949,  964,  963
460, 3088, 3089, 3104, 3103,  949,  950,  965,  964
461, 3089, 3090, 3105, 3104,  950,  951,  966,  965
462, 3090, 3091, 3106, 3105,  951,  952,  967,  966
463, 3091, 3092, 3107, 3106,  952,  953,  968,  967
464, 3092, 1107, 1108, 3107,  953,  163,  164,  968
465,  891, 3093, 3108,  892,   73,  954,  969,   74
466, 3093, 3094, 3109, 3108,  954,  955,  970,  969
467, 3094, 3095, 3110, 3109,  955,  956,  971,  970
468, 3095, 3096, 3111, 3110,  956,  957,  972,  971
469, 3096, 3097, 3112, 3111,  957,  958,  973,  972
470, 3097, 3098, 3113, 3112,  958,  959,  974,  973
471, 3098, 3099, 3114, 3113,  959,  960,  975,  974
472, 3099, 3100, 3115, 3114,  960,  961,  976,  975
473, 3100, 3101, 3116, 3115,  961,  962,  977,  976
474, 3101, 3102, 3117, 3116,  962,  963,  978,  977
475, 3102, 3103, 3118, 3117,  963,  964,  979,  978
476, 3103, 3104, 3119, 3118,  964,  965,  980,  979
477, 3104, 3105, 3120, 3119,  965,  966,  981,  980
478, 3105, 3106, 3121, 3120,  966,  967,  982,  981
479, 3106, 3107, 3122, 3121,  967,  968,  983,  982
480, 3107, 1108, 1109, 3122,  968,  164,  165,  983
481,  892, 3108, 3123,  893,   74,  969,  984,   75
482, 3108, 3109, 3124, 3123,  969,  970,  985,  984
483, 3109, 3110, 3125, 3124,  970,  971,  986,  985
484, 3110, 3111, 3126, 3125,  971,  972,  987,  986
485, 3111, 3112, 3127, 3126,  972,  973,  988,  987
486, 3112, 3113, 3128, 3127,  973,  974,  989,  988
487, 3113, 3114, 3129, 3128,  974,  975,  990,  989
488, 3114, 3115, 3130, 3129,  975,  976,  991,  990
489, 3115, 3116, 3131, 3130,  976,  977,  992,  991
490, 3116, 3117, 3132, 3131,  977,  978,  993,  992
491, 3117, 3118, 3133, 3132,  978,  979,  994,  993
492, 3118, 3119, 3134, 3133,  979,  980,  995,  994
493, 3119, 3120, 3135, 3134,  980,  981,  996,  995
494, 3120, 3121, 3136, 3135,  981,  982,  997,  996
495, 3121, 3122, 3137, 3136,  982,  983,  998,  997
496, 3122, 1109, 1110, 3137,  983,  165,  166,  998
497,  893, 3123, 1170,  139,   75,  984,  181,    6
498, 3123, 3124, 1171, 1170,  984,  985,  180,  181
499, 3124, 3125, 1172, 1171,  985,  986,  179,  180
500, 3125, 3126, 1173, 1172,  986,  987,  178,  179
501, 3126, 3127, 1174, 1173,  987,  988,  177,  178
502, 3127, 3128, 1175, 1174,  988,  989,  176,  177
503, 3128, 3129, 1176, 1175,  989,  990,  175,  176
504, 3129, 3130, 1177, 1176,  990,  991,  174,  175
505, 3130, 3131, 1178, 1177,  991,  992,  173,  174
506, 3131, 3132, 1179, 1178,  992,  993,  172,  173
507, 3132, 3133, 1180, 1179,  993,  994,  171,  172
508, 3133, 3134, 1181, 1180,  994,  995,  170,  171
509, 3134, 3135, 1182, 1181,  995,  996,  169,  170
510, 3135, 3136, 1183, 1182,  996,  997,  168,  169
511, 3136, 3137, 1184, 1183,  997,  998,  167,  168
512, 3137, 1110,  221, 1184,  998,  166,   14,  167
513,  134, 1140, 3138,  880,  135, 1125, 3033,  887
514, 1140, 1141, 3139, 3138, 1125, 1126, 3034, 3033
515, 1141, 1142, 3140, 3139, 1126, 1127, 3035, 3034
516, 1142, 1143, 3141, 3140, 1127, 1128, 3036, 3035
517, 1143, 1144, 3142, 3141, 1128, 1129, 3037, 3036
518, 1144, 1145, 3143, 3142, 1129, 1130, 3038, 3037
519, 1145, 1146, 3144, 3143, 1130, 1131, 3039, 3038
520, 1146, 1147, 3145, 3144, 1131, 1132, 3040, 3039
521, 1147, 1148, 3146, 3145, 1132, 1133, 3041, 3040
522, 1148, 1149, 3147, 3146, 1133, 1134, 3042, 3041
523, 1149, 1150, 3148, 3147, 1134, 1135, 3043, 3042
524, 1150, 1151, 3149, 3148, 1135, 1136, 3044, 3043
525, 1151, 1152, 3150, 3149, 1136, 1137, 3045, 3044
526, 1152, 1153, 3151, 3150, 1137, 1138, 3046, 3045
527, 1153, 1154, 3152, 3151, 1138, 1139, 3047, 3046
528, 1154,  223, 1111, 3152, 1139,  222, 1104, 3047
529,  880, 3138, 3153,  881,  887, 3033, 3048,  888
530, 3138, 3139, 3154, 3153, 3033, 3034, 3049, 3048
531, 3139, 3140, 3155, 3154, 3034, 3035, 3050, 3049
532, 3140, 3141, 3156, 3155, 3035, 3036, 3051, 3050
533, 3141, 3142, 3157, 3156, 3036, 3037, 3052, 3051
534, 3142, 3143, 3158, 3157, 3037, 3038, 3053, 3052
535, 3143, 3144, 3159, 3158, 3038, 3039, 3054, 3053
536, 3144, 3145, 3160, 3159, 3039, 3040, 3055, 3054
537, 3145, 3146, 3161, 3160, 3040, 3041, 3056, 3055
538, 3146, 3147, 3162, 3161, 3041, 3042, 3057, 3056
539, 3147, 3148, 3163, 3162, 3042, 3043, 3058, 3057
540, 3148, 3149, 3164, 3163, 3043, 3044, 3059, 3058
541, 3149, 3150, 3165, 3164, 3044, 3045, 3060, 3059
542, 3150, 3151, 3166, 3165, 3045, 3046, 3061, 3060
543, 3151, 3152, 3167, 3166, 3046, 3047, 3062, 3061
544, 3152, 1111, 1112, 3167, 3047, 1104, 1105, 3062
545,  881, 3153, 3168,  882,  888, 3048, 3063,  889
546, 3153, 3154, 3169, 3168, 3048, 3049, 3064, 3063
547, 3154, 3155, 3170, 3169, 3049, 3050, 3065, 3064
548, 3155, 3156, 3171, 3170, 3050, 3051, 3066, 3065
549, 3156, 3157, 3172, 3171, 3051, 3052, 3067, 3066
550, 3157, 3158, 3173, 3172, 3052, 3053, 3068, 3067
551, 3158, 3159, 3174, 3173, 3053, 3054, 3069, 3068
552, 3159, 3160, 3175, 3174, 3054, 3055, 3070, 3069
553, 3160, 3161, 3176, 3175, 3055, 3056, 3071, 3070
554, 3161, 3162, 3177, 3176, 3056, 3057, 3072, 3071
555, 3162, 3163, 3178, 3177, 3057, 3058, 3073, 3072
556, 3163, 3164, 3179, 3178, 3058, 3059, 3074, 3073
557, 3164, 3165, 3180, 3179, 3059, 3060, 3075, 3074
558, 3165, 3166, 3181, 3180, 3060, 3061, 3076, 3075
559, 3166, 3167, 3182, 3181, 3061, 3062, 3077, 3076
560, 3167, 1112, 1113, 3182, 3062, 1105, 1106, 3077
561,  882, 3168, 3183,  883,  889, 3063, 3078,  890
562, 3168, 3169, 3184, 3183, 3063, 3064, 3079, 3078
563, 3169, 3170, 3185, 3184, 3064, 3065, 3080, 3079
564, 3170, 3171, 3186, 3185, 3065, 3066, 3081, 3080
565, 3171, 3172, 3187, 3186, 3066, 3067, 3082, 3081
566, 3172, 3173, 3188, 3187, 3067, 3068, 3083, 3082
567, 3173, 3174, 3189, 3188, 3068, 3069, 3084, 3083
568, 3174, 3175, 3190, 3189, 3069, 3070, 3085, 3084
569, 3175, 3176, 3191, 3190, 3070, 3071, 3086, 3085
570, 3176, 3177, 3192, 3191, 3071, 3072, 3087, 3086
571, 3177, 3178, 3193, 3192, 3072, 3073, 3088, 3087
572, 3178, 3179, 3194, 3193, 3073, 3074, 3089, 3088
573, 3179, 3180, 3195, 3194, 3074, 3075, 3090, 3089
574, 3180, 3181, 3196, 3195, 3075, 3076, 3091, 3090
575, 3181, 3182, 3197, 3196, 3076, 3077, 3092, 3091
576, 3182, 1113, 1114, 3197, 3077, 1106, 1107, 3092
577,  883, 3183, 3198,  884,  890, 3078, 3093,  891
578, 3183, 3184, 3199, 3198, 3078, 3079, 3094, 3093
579, 3184, 3185, 3200, 3199, 3079, 3080, 3095, 3094
580, 3185, 3186, 3201, 3200, 3080, 3081, 3096, 3095
581, 3186, 3187, 3202, 3201, 3081, 3082, 3097, 3096
582, 3187, 3188, 3203, 3202, 3082, 3083, 3098, 3097
583, 3188, 3189, 3204, 3203, 3083, 3084, 3099, 3098
584, 3189, 3190, 3205, 3204, 3084, 3085, 3100, 3099
585, 3190, 3191, 3206, 3205, 3085, 3086, 3101, 3100
586, 3191, 3192, 3207, 3206, 3086, 3087, 3102, 3101
587, 3192, 3193, 3208, 3207, 3087, 3088, 3103, 3102
588, 3193, 3194, 3209, 3208, 3088, 3089, 3104, 3103
589, 3194, 3195, 3210, 3209, 3089, 3090, 3105, 3104
590, 3195, 3196, 3211, 3210, 3090, 3091, 3106, 3105
591, 3196, 3197, 3212, 3211, 3091, 3092, 3107, 3106
592, 3197, 1114, 1115, 3212, 3092, 1107, 1108, 3107
593,  884, 3198, 3213,  885,  891, 3093, 3108,  892
594, 3198, 3199, 3214, 3213, 3093, 3094, 3109, 3108
595, 3199, 3200, 3215, 3214, 3094, 3095, 3110, 3109
596, 3200, 3201, 3216, 3215, 3095, 3096, 3111, 3110
597, 3201, 3202, 3217, 3216, 3096, 3097, 3112, 3111
598, 3202, 3203, 3218, 3217, 3097, 3098, 3113, 3112
599, 3203, 3204, 3219, 3218, 3098, 3099, 3114, 3113
600, 3204, 3205, 3220, 3219, 3099, 3100, 3115, 3114
601, 3205, 3206, 3221, 3220, 3100, 3101, 3116, 3115
602, 3206, 3207, 3222, 3221, 3101, 3102, 3117, 3116
603, 3207, 3208, 3223, 3222, 3102, 3103, 3118, 3117
604, 3208, 3209, 3224, 3223, 3103, 3104, 3119, 3118
605, 3209, 3210, 3225, 3224, 3104, 3105, 3120, 3119
606, 3210, 3211, 3226, 3225, 3105, 3106, 3121, 3120
607, 3211, 3212, 3227, 3226, 3106, 3107, 3122, 3121
608, 3212, 1115, 1116, 3227, 3107, 1108, 1109, 3122
609,  885, 3213, 3228,  886,  892, 3108, 3123,  893
610, 3213, 3214, 3229, 3228, 3108, 3109, 3124, 3123
611, 3214, 3215, 3230, 3229, 3109, 3110, 3125, 3124
612, 3215, 3216, 3231, 3230, 3110, 3111, 3126, 3125
613, 3216, 3217, 3232, 3231, 3111, 3112, 3127, 3126
614, 3217, 3218, 3233, 3232, 3112, 3113, 3128, 3127
615, 3218, 3219, 3234, 3233, 3113, 3114, 3129, 3128
616, 3219, 3220, 3235, 3234, 3114, 3115, 3130, 3129
617, 3220, 3221, 3236, 3235, 3115, 3116, 3131, 3130
618, 3221, 3222, 3237, 3236, 3116, 3117, 3132, 3131
619, 3222, 3223, 3238, 3237, 3117, 3118, 3133, 3132
620, 3223, 3224, 3239, 3238, 3118, 3119, 3134, 3133
621, 3224, 3225, 3240, 3239, 3119, 3120, 3135, 3134
622, 3225, 3226, 3241, 3240, 3120, 3121, 3136, 3135
623, 3226, 3227, 3242, 3241, 3121, 3122, 3137, 3136
624, 3227, 1116, 1117, 3242, 3122, 1109, 1110, 3137
625,  886, 3228, 1185,  140,  893, 3123, 1170,  139
626, 3228, 3229, 1186, 1185, 3123, 3124, 1171, 1170
627, 3229, 3230, 1187, 1186, 3124, 3125, 1172, 1171
628, 3230, 3231, 1188, 1187, 3125, 3126, 1173, 1172
629, 3231, 3232, 1189, 1188, 3126, 3127, 1174, 1173
630, 3232, 3233, 1190, 1189, 3127, 3128, 1175, 1174
631, 3233, 3234, 1191, 1190, 3128, 3129, 1176, 1175
632, 3234, 3235, 1192, 1191, 3129, 3130, 1177, 1176
633, 3235, 3236, 1193, 1192, 3130, 3131, 1178, 1177
634, 3236, 3237, 1194, 1193, 3131, 3132, 1179, 1178
635, 3237, 3238, 1195, 1194, 3132, 3133, 1180, 1179
636, 3238, 3239, 1196, 1195, 3133, 3134, 1181, 1180
637, 3239, 3240, 1197, 1196, 3134, 3135, 1182, 1181
638, 3240, 3241, 1198, 1197, 3135, 3136, 1183, 1182
639, 3241, 3242, 1199, 1198, 3136, 3137, 1184, 1183
640, 3242, 1117,  220, 1199, 3137, 1110,  221, 1184
641,  133, 1155, 3243,  873,  134, 1140, 3138,  880
642, 1155, 1156, 3244, 3243, 1140, 1141, 3139, 3138
643, 1156, 1157, 3245, 3244, 1141, 1142, 3140, 3139
644, 1157, 1158, 3246, 3245, 1142, 1143, 3141, 3140
645, 1158, 1159, 3247, 3246, 1143, 1144, 3142, 3141
646, 1159, 1160, 3248, 3247, 1144, 1145, 3143, 3142
647, 1160, 1161, 3249, 3248, 1145, 1146, 3144, 3143
648, 1161, 1162, 3250, 3249, 1146, 1147, 3145, 3144
649, 1162, 1163, 3251, 3250, 1147, 1148, 3146, 3145
650, 1163, 1164, 3252, 3251, 1148, 1149, 3147, 3146
651, 1164, 1165, 3253, 3252, 1149, 1150, 3148, 3147
652, 1165, 1166, 3254, 3253, 1150, 1151, 3149, 3148
653, 1166, 1167, 3255, 3254, 1151, 1152, 3150, 3149
654, 1167, 1168, 3256, 3255, 1152, 1153, 3151, 3150
655, 1168, 1169, 3257, 3256, 1153, 1154, 3152, 3151
656, 1169,  224, 1118, 3257, 1154,  223, 1111, 3152
657,  873, 3243, 3258,  874,  880, 3138, 3153,  881
658, 3243, 3244, 3259, 3258, 3138, 3139, 3154, 3153
659, 3244, 3245, 3260, 3259, 3139, 3140, 3155, 3154
660, 3245, 3246, 3261, 3260, 3140, 3141, 3156, 3155
661, 3246, 3247, 3262, 3261, 3141, 3142, 3157, 3156
662, 3247, 3248, 3263, 3262, 3142, 3143, 3158, 3157
663, 3248, 3249, 3264, 3263, 3143, 3144, 3159, 3158
664, 3249, 3250, 3265, 3264, 3144, 3145, 3160, 3159
665, 3250, 3251, 3266, 3265, 3145, 3146, 3161, 3160
666, 3251, 3252, 3267, 3266, 3146, 3147, 3162, 3161
667, 3252, 3253, 3268, 3267, 3147, 3148, 3163, 3162
668, 3253, 3254, 3269, 3268, 3148, 3149, 3164, 3163
669, 3254, 3255, 3270, 3269, 3149, 3150, 3165, 3164
670, 3255, 3256, 3271, 3270, 3150, 3151, 3166, 3165
671, 3256, 3257, 3272, 3271, 3151, 3152, 3167, 3166
672, 3257, 1118, 1119, 3272, 3152, 1111, 1112, 3167
673,  874, 3258, 3273,  875,  881, 3153, 3168,  882
674, 3258, 3259, 3274, 3273, 3153, 3154, 3169, 3168
675, 3259, 3260, 3275, 3274, 3154, 3155, 3170, 3169
676, 3260, 3261, 3276, 3275, 3155, 3156, 3171, 3170
677, 3261, 3262, 3277, 3276, 3156, 3157, 3172, 3171
678, 3262, 3263, 3278, 3277, 3157, 3158, 3173, 3172
679, 3263, 3264, 3279, 3278, 3158, 3159, 3174, 3173
680, 3264, 3265, 3280, 3279, 3159, 3160, 3175, 3174
681, 3265, 3266, 3281, 3280, 3160, 3161, 3176, 3175
682, 3266, 3267, 3282, 3281, 3161, 3162, 3177, 3176
683, 3267, 3268, 3283, 3282, 3162, 3163, 3178, 3177
684, 3268, 3269, 3284, 3283, 3163, 3164, 3179, 3178
685, 3269, 3270, 3285, 3284, 3164, 3165, 3180, 3179
686, 3270, 3271, 3286, 3285, 3165, 3166, 3181, 3180
687, 3271, 3272, 3287, 3286, 3166, 3167, 3182, 3181
688, 3272, 1119, 1120, 3287, 3167, 1112, 1113, 3182
689,  875, 3273, 3288,  876,  882, 3168, 3183,  883
690, 3273, 3274, 3289, 3288, 3168, 3169, 3184, 3183
691, 3274, 3275, 3290, 3289, 3169, 3170, 3185, 3184
692, 3275, 3276, 3291, 3290, 3170, 3171, 3186, 3185
693, 3276, 3277, 3292, 3291, 3171, 3172, 3187, 3186
694, 3277, 3278, 3293, 3292, 3172, 3173, 3188, 3187
695, 3278, 3279, 3294, 3293, 3173, 3174, 3189, 3188
696, 3279, 3280, 3295, 3294, 3174, 3175, 3190, 3189
697, 3280, 3281, 3296, 3295, 3175, 3176, 3191, 3190
698, 3281, 3282, 3297, 3296, 3176, 3177, 3192, 3191
699, 3282, 3283, 3298, 3297, 3177, 3178, 3193, 3192
700, 3283, 3284, 3299, 3298, 3178, 3179, 3194, 3193
701, 3284, 3285, 3300, 3299, 3179, 3180, 3195, 3194
702, 3285, 3286, 3301, 3300, 3180, 3181, 3196, 3195
703, 3286, 3287, 3302, 3301, 3181, 3182, 3197, 3196
704, 3287, 1120, 1121, 3302, 3182, 1113, 1114, 3197
705,  876, 3288, 3303,  877,  883, 3183, 3198,  884
706, 3288, 3289, 3304, 3303, 3183, 3184, 3199, 3198
707, 3289, 3290, 3305, 3304, 3184, 3185, 3200, 3199
708, 3290, 3291, 3306, 3305, 3185, 3186, 3201, 3200
709, 3291, 3292, 3307, 3306, 3186, 3187, 3202, 3201
710, 3292, 3293, 3308, 3307, 3187, 3188, 3203, 3202
711, 3293, 3294, 3309, 3308, 3188, 3189, 3204, 3203
712, 3294, 3295, 3310, 3309, 3189, 3190, 3205, 3204
713, 3295, 3296, 3311, 3310, 3190, 3191, 3206, 3205
714, 3296, 3297, 3312, 3311, 3191, 3192, 3207, 3206
715, 3297, 3298, 3313, 3312, 3192, 3193, 3208, 3207
716, 3298, 3299, 3314, 3313, 3193, 3194, 3209, 3208
717, 3299, 3300, 3315, 3314, 3194, 3195, 3210, 3209
718, 3300, 3301, 3316, 3315, 3195, 3196, 3211, 3210
719, 3301, 3302, 3317, 3316, 3196, 3197, 3212, 3211
720, 3302, 1121, 1122, 3317, 3197, 1114, 1115, 3212
721,  877, 3303, 3318,  878,  884, 3198, 3213,  885
722, 3303, 3304, 3319, 3318, 3198, 3199, 3214, 3213
723, 3304, 3305, 3320, 3319, 3199, 3200, 3215, 3214
724, 3305, 3306, 3321, 3320, 3200, 3201, 3216, 3215
725, 3306, 3307, 3322, 3321, 3201, 3202, 3217, 3216
726, 3307, 3308, 3323, 3322, 3202, 3203, 3218, 3217
727, 3308, 3309, 3324, 3323, 3203, 3204, 3219, 3218
728, 3309, 3310, 3325, 3324, 3204, 3205, 3220, 3219
729, 3310, 3311, 3326, 3325, 3205, 3206, 3221, 3220
730, 3311, 3312, 3327, 3326, 3206, 3207, 3222, 3221
731, 3312, 3313, 3328, 3327, 3207, 3208, 3223, 3222
732, 3313, 3314, 3329, 3328, 3208, 3209, 3224, 3223
733, 3314, 3315, 3330, 3329, 3209, 3210, 3225, 3224
734, 3315, 3316, 3331, 3330, 3210, 3211, 3226, 3225
735, 3316, 3317, 3332, 3331, 3211, 3212, 3227, 3226
736, 3317, 1122, 1123, 3332, 3212, 1115, 1116, 3227
737,  878, 3318, 3333,  879,  885, 3213, 3228,  886
738, 3318, 3319, 3334, 3333, 3213, 3214, 3229, 3228
739, 3319, 3320, 3335, 3334, 3214, 3215, 3230, 3229
740, 3320, 3321, 3336, 3335, 3215, 3216, 3231, 3230
741, 3321, 3322, 3337, 3336, 3216, 3217, 3232, 3231
742, 3322, 3323, 3338, 3337, 3217, 3218, 3233, 3232
743, 3323, 3324, 3339, 3338, 3218, 3219, 3234, 3233
744, 3324, 3325, 3340, 3339, 3219, 3220, 3235, 3234
745, 3325, 3326, 3341, 3340, 3220, 3221, 3236, 3235
746, 3326, 3327, 3342, 3341, 3221, 3222, 3237, 3236
747, 3327, 3328, 3343, 3342, 3222, 3223, 3238, 3237
748, 3328, 3329, 3344, 3343, 3223, 3224, 3239, 3238
749, 3329, 3330, 3345, 3344, 3224, 3225, 3240, 3239
750, 3330, 3331, 3346, 3345, 3225, 3226, 3241, 3240
751, 3331, 3332, 3347, 3346, 3226, 3227, 3242, 3241
752, 3332, 1123, 1124, 3347, 3227, 1116, 1117, 3242
753,  879, 3333, 1200,  141,  886, 3228, 1185,  140
754, 3333, 3334, 1201, 1200, 3228, 3229, 1186, 1185
755, 3334, 3335, 1202, 1201, 3229, 3230, 1187, 1186
756, 3335, 3336, 1203, 1202, 3230, 3231, 1188, 1187
757, 3336, 3337, 1204, 1203, 3231, 3232, 1189, 1188
758, 3337, 3338, 1205, 1204, 3232, 3233, 1190, 1189
759, 3338, 3339, 1206, 1205, 3233, 3234, 1191, 1190
760, 3339, 3340, 1207, 1206, 3234, 3235, 1192, 1191
761, 3340, 3341, 1208, 1207, 3235, 3236, 1193, 1192
762, 3341, 3342, 1209, 1208, 3236, 3237, 1194, 1193
763, 3342, 3343, 1210, 1209, 3237, 3238, 1195, 1194
764, 3343, 3344, 1211, 1210, 3238, 3239, 1196, 1195
765, 3344, 3345, 1212, 1211, 3239, 3240, 1197, 1196
766, 3345, 3346, 1213, 1212, 3240, 3241, 1198, 1197
767, 3346, 3347, 1214, 1213, 3241, 3242, 1199, 1198
768, 3347, 1124,  219, 1214, 3242, 1117,  220, 1199
769,   12,  196,  999,  127,  133, 1155, 3243,  873
770,  196,  195, 1000,  999, 1155, 1156, 3244, 3243
771,  195,  194, 1001, 1000, 1156, 1157, 3245, 3244
772,  194,  193, 1002, 1001, 1157, 1158, 3246, 3245
773,  193,  192, 1003, 1002, 1158, 1159, 3247, 3246
774,  192,  191, 1004, 1003, 1159, 1160, 3248, 3247
775,  191,  190, 1005, 1004, 1160, 1161, 3249, 3248
776,  190,  189, 1006, 1005, 1161, 1162, 3250, 3249
777,  189,  188, 1007, 1006, 1162, 1163, 3251, 3250
778,  188,  187, 1008, 1007, 1163, 1164, 3252, 3251
779,  187,  186, 1009, 1008, 1164, 1165, 3253, 3252
780,  186,  185, 1010, 1009, 1165, 1166, 3254, 3253
781,  185,  184, 1011, 1010, 1166, 1167, 3255, 3254
782,  184,  183, 1012, 1011, 1167, 1168, 3256, 3255
783,  183,  182, 1013, 1012, 1168, 1169, 3257, 3256
784,  182,   15,  203, 1013, 1169,  224, 1118, 3257
785,  127,  999, 1014,  126,  873, 3243, 3258,  874
786,  999, 1000, 1015, 1014, 3243, 3244, 3259, 3258
787, 1000, 1001, 1016, 1015, 3244, 3245, 3260, 3259
788, 1001, 1002, 1017, 1016, 3245, 3246, 3261, 3260
789, 1002, 1003, 1018, 1017, 3246, 3247, 3262, 3261
790, 1003, 1004, 1019, 1018, 3247, 3248, 3263, 3262
791, 1004, 1005, 1020, 1019, 3248, 3249, 3264, 3263
792, 1005, 1006, 1021, 1020, 3249, 3250, 3265, 3264
793, 1006, 1007, 1022, 1021, 3250, 3251, 3266, 3265
794, 1007, 1008, 1023, 1022, 3251, 3252, 3267, 3266
795, 1008, 1009, 1024, 1023, 3252, 3253, 3268, 3267
796, 1009, 1010, 1025, 1024, 3253, 3254, 3269, 3268
797, 1010, 1011, 1026, 1025, 3254, 3255, 3270, 3269
798, 1011, 1012, 1027, 1026, 3255, 3256, 3271, 3270
799, 1012, 1013, 1028, 1027, 3256, 3257, 3272, 3271
800, 1013,  203,  202, 1028, 3257, 1118, 1119, 3272
801,  126, 1014, 1029,  125,  874, 3258, 3273,  875
802, 1014, 1015, 1030, 1029, 3258, 3259, 3274, 3273
803, 1015, 1016, 1031, 1030, 3259, 3260, 3275, 3274
804, 1016, 1017, 1032, 1031, 3260, 3261, 3276, 3275
805, 1017, 1018, 1033, 1032, 3261, 3262, 3277, 3276
806, 1018, 1019, 1034, 1033, 3262, 3263, 3278, 3277
807, 1019, 1020, 1035, 1034, 3263, 3264, 3279, 3278
808, 1020, 1021, 1036, 1035, 3264, 3265, 3280, 3279
809, 1021, 1022, 1037, 1036, 3265, 3266, 3281, 3280
810, 1022, 1023, 1038, 1037, 3266, 3267, 3282, 3281
811, 1023, 1024, 1039, 1038, 3267, 3268, 3283, 3282
812, 1024, 1025, 1040, 1039, 3268, 3269, 3284, 3283
813, 1025, 1026, 1041, 1040, 3269, 3270, 3285, 3284
814, 1026, 1027, 1042, 1041, 3270, 3271, 3286, 3285
815, 1027, 1028, 1043, 1042, 3271, 3272, 3287, 3286
816, 1028,  202,  201, 1043, 3272, 1119, 1120, 3287
817,  125, 1029, 1044,  124,  875, 3273, 3288,  876
818, 1029, 1030, 1045, 1044, 3273, 3274, 3289, 3288
819, 1030, 1031, 1046, 1045, 3274, 3275, 3290, 3289
820, 1031, 1032, 1047, 1046, 3275, 3276, 3291, 3290
821, 1032, 1033, 1048, 1047, 3276, 3277, 3292, 3291
822, 1033, 1034, 1049, 1048, 3277, 3278, 3293, 3292
823, 1034, 1035, 1050, 1049, 3278, 3279, 3294, 3293
824, 1035, 1036, 1051, 1050, 3279, 3280, 3295, 3294
825, 1036, 1037, 1052, 1051, 3280, 3281, 3296, 3295
826, 1037, 1038, 1053, 1052, 3281, 3282, 3297, 3296
827, 1038, 1039, 1054, 1053, 3282, 3283, 3298, 3297
828, 1039, 1040, 1055, 1054, 3283, 3284, 3299, 3298
829, 1040, 1041, 1056, 1055, 3284, 3285, 3300, 3299
830, 1041, 1042, 1057, 1056, 3285, 3286, 3301, 3300
831, 1042, 1043, 1058, 1057, 3286, 3287, 3302, 3301
832, 1043,  201,  200, 1058, 3287, 1120, 1121, 3302
833,  124, 1044, 1059,  123,  876, 3288, 3303,  877
834, 1044, 1045, 1060, 1059, 3288, 3289, 3304, 3303
835, 1045, 1046, 1061, 1060, 3289, 3290, 3305, 3304
836, 1046, 1047, 1062, 1061, 3290, 3291, 3306, 3305
837, 1047, 1048, 1063, 1062, 3291, 3292, 3307, 3306
838, 1048, 1049, 1064, 1063, 3292, 3293, 3308, 3307
839, 1049, 1050, 1065, 1064, 3293, 3294, 3309, 3308
840, 1050, 1051, 1066, 1065, 3294, 3295, 3310, 3309
841, 1051, 1052, 1067, 1066, 3295, 3296, 3311, 3310
842, 1052, 1053, 1068, 1067, 3296, 3297, 3312, 3311
843, 1053, 1054, 1069, 1068, 3297, 3298, 3313, 3312
844, 1054, 1055, 1070, 1069, 3298, 3299, 3314, 3313
845, 1055, 1056, 1071, 1070, 3299, 3300, 3315, 3314
846, 1056, 1057, 1072, 1071, 3300, 3301, 3316, 3315
847, 1057, 1058, 1073, 1072, 3301, 3302, 3317, 3316
848, 1058,  200,  199, 1073, 3302, 1121, 1122, 3317
849,  123, 1059, 1074,  122,  877, 3303, 3318,  878
850, 1059, 1060, 1075, 1074, 3303, 3304, 3319, 3318
851, 1060, 1061, 1076, 1075, 3304, 3305, 3320, 3319
852, 1061, 1062, 1077, 1076, 3305, 3306, 3321, 3320
853, 1062, 1063, 1078, 1077, 3306, 3307, 3322, 3321
854, 1063, 1064, 1079, 1078, 3307, 3308, 3323, 3322
855, 1064, 1065, 1080, 1079, 3308, 3309, 3324, 3323
856, 1065, 1066, 1081, 1080, 3309, 3310, 3325, 3324
857, 1066, 1067, 1082, 1081, 3310, 3311, 3326, 3325
858, 1067, 1068, 1083, 1082, 3311, 3312, 3327, 3326
859, 1068, 1069, 1084, 1083, 3312, 3313, 3328, 3327
860, 1069, 1070, 1085, 1084, 3313, 3314, 3329, 3328
861, 1070, 1071, 1086, 1085, 3314, 3315, 3330, 3329
862, 1071, 1072, 1087, 1086, 3315, 3316, 3331, 3330
863, 1072, 1073, 1088, 1087, 3316, 3317, 3332, 3331
864, 1073,  199,  198, 1088, 3317, 1122, 1123, 3332
865,  122, 1074, 1089,  121,  878, 3318, 3333,  879
866, 1074, 1075, 1090, 1089, 3318, 3319, 3334, 3333
867, 1075, 1076, 1091, 1090, 3319, 3320, 3335, 3334
868, 1076, 1077, 1092, 1091, 3320, 3321, 3336, 3335
869, 1077, 1078, 1093, 1092, 3321, 3322, 3337, 3336
870, 1078, 1079, 1094, 1093, 3322, 3323, 3338, 3337
871, 1079, 1080, 1095, 1094, 3323, 3324, 3339, 3338
872, 1080, 1081, 1096, 1095, 3324, 3325, 3340, 3339
873, 1081, 1082, 1097, 1096, 3325, 3326, 3341, 3340
874, 1082, 1083, 1098, 1097, 3326, 3327, 3342, 3341
875, 1083, 1084, 1099, 1098, 3327, 3328, 3343, 3342
876, 1084, 1085, 1100, 1099, 3328, 3329, 3344, 3343
877, 1085, 1086, 1101, 1100, 3329, 3330, 3345, 3344
878, 1086, 1087, 1102, 1101, 3330, 3331, 3346, 3345
879, 1087, 1088, 1103, 1102, 3331, 3332, 3347, 3346
880, 1088,  198,  197, 1103, 3332, 1123, 1124, 3347
881,  121, 1089,  204,   11,  879, 3333, 1200,  141
882, 1089, 1090,  205,  204, 3333, 3334, 1201, 1200
883, 1090, 1091,  206,  205, 3334, 3335, 1202, 1201
884, 1091, 1092,  207,  206, 3335, 3336, 1203, 1202
885, 1092, 1093,  208,  207, 3336, 3337, 1204, 1203
886, 1093, 1094,  209,  208, 3337, 3338, 1205, 1204
887, 1094, 1095,  210,  209, 3338, 3339, 1206, 1205
888, 1095, 1096,  211,  210, 3339, 3340, 1207, 1206
889, 1096, 1097,  212,  211, 3340, 3341, 1208, 1207
890, 1097, 1098,  213,  212, 3341, 3342, 1209, 1208
891, 1098, 1099,  214,  213, 3342, 3343, 1210, 1209
892, 1099, 1100,  215,  214, 3343, 3344, 1211, 1210
893, 1100, 1101,  216,  215, 3344, 3345, 1212, 1211
894, 1101, 1102,  217,  216, 3345, 3346, 1213, 1212
895, 1102, 1103,  218,  217, 3346, 3347, 1214, 1213
896, 1103,  197,   16,  218, 3347, 1124,  219, 1214
 897,  294, 1395, 3348, 1341,   17,  225, 1215,  256
 898, 1395, 1396, 3349, 3348,  225,  226, 1216, 1215
 899, 1396, 1397, 3350, 3349,  226,  227, 1217, 1216
 900, 1397, 1398, 3351, 3350,  227,  228, 1218, 1217
 901, 1398, 1399, 3352, 3351,  228,  229, 1219, 1218
 902, 1399, 1400, 3353, 3352,  229,  230, 1220, 1219
 903, 1400, 1401, 3354, 3353,  230,  231, 1221, 1220
 904, 1401,  298, 1368, 3354,  231,   18,  232, 1221
 905, 1341, 3348, 3355, 1342,  256, 1215, 1222,  255
 906, 3348, 3349, 3356, 3355, 1215, 1216, 1223, 1222
 907, 3349, 3350, 3357, 3356, 1216, 1217, 1224, 1223
 908, 3350, 3351, 3358, 3357, 1217, 1218, 1225, 1224
 909, 3351, 3352, 3359, 3358, 1218, 1219, 1226, 1225
 910, 3352, 3353, 3360, 3359, 1219, 1220, 1227, 1226
 911, 3353, 3354, 3361, 3360, 1220, 1221, 1228, 1227
 912, 3354, 1368, 1369, 3361, 1221,  232,  233, 1228
 913, 1342, 3355, 3362, 1343,  255, 1222, 1229,  254
 914, 3355, 3356, 3363, 3362, 1222, 1223, 1230, 1229
 915, 3356, 3357, 3364, 3363, 1223, 1224, 1231, 1230
 916, 3357, 3358, 3365, 3364, 1224, 1225, 1232, 1231
 917, 3358, 3359, 3366, 3365, 1225, 1226, 1233, 1232
 918, 3359, 3360, 3367, 3366, 1226, 1227, 1234, 1233
 919, 3360, 3361, 3368, 3367, 1227, 1228, 1235, 1234
 920, 3361, 1369, 1370, 3368, 1228,  233,  234, 1235
 921, 1343, 3362, 3369, 1344,  254, 1229, 1236,  253
 922, 3362, 3363, 3370, 3369, 1229, 1230, 1237, 1236
 923, 3363, 3364, 3371, 3370, 1230, 1231, 1238, 1237
 924, 3364, 3365, 3372, 3371, 1231, 1232, 1239, 1238
 925, 3365, 3366, 3373, 3372, 1232, 1233, 1240, 1239
 926, 3366, 3367, 3374, 3373, 1233, 1234, 1241, 1240
 927, 3367, 3368, 3375, 3374, 1234, 1235, 1242, 1241
 928, 3368, 1370, 1371, 3375, 1235,  234,  235, 1242
 929, 1344, 3369, 3376, 1345,  253, 1236, 1243,  252
 930, 3369, 3370, 3377, 3376, 1236, 1237, 1244, 1243
 931, 3370, 3371, 3378, 3377, 1237, 1238, 1245, 1244
 932, 3371, 3372, 3379, 3378, 1238, 1239, 1246, 1245
 933, 3372, 3373, 3380, 3379, 1239, 1240, 1247, 1246
 934, 3373, 3374, 3381, 3380, 1240, 1241, 1248, 1247
 935, 3374, 3375, 3382, 3381, 1241, 1242, 1249, 1248
 936, 3375, 1371, 1372, 3382, 1242,  235,  236, 1249
 937, 1345, 3376, 3383, 1346,  252, 1243, 1250,  251
 938, 3376, 3377, 3384, 3383, 1243, 1244, 1251, 1250
 939, 3377, 3378, 3385, 3384, 1244, 1245, 1252, 1251
 940, 3378, 3379, 3386, 3385, 1245, 1246, 1253, 1252
 941, 3379, 3380, 3387, 3386, 1246, 1247, 1254, 1253
 942, 3380, 3381, 3388, 3387, 1247, 1248, 1255, 1254
 943, 3381, 3382, 3389, 3388, 1248, 1249, 1256, 1255
 944, 3382, 1372, 1373, 3389, 1249,  236,  237, 1256
 945, 1346, 3383, 3390, 1347,  251, 1250, 1257,  250
 946, 3383, 3384, 3391, 3390, 1250, 1251, 1258, 1257
 947, 3384, 3385, 3392, 3391, 1251, 1252, 1259, 1258
 948, 3385, 3386, 3393, 3392, 1252, 1253, 1260, 1259
 949, 3386, 3387, 3394, 3393, 1253, 1254, 1261, 1260
 950, 3387, 3388, 3395, 3394, 1254, 1255, 1262, 1261
 951, 3388, 3389, 3396, 3395, 1255, 1256, 1263, 1262
 952, 3389, 1373, 1374, 3396, 1256,  237,  238, 1263
 953, 1347, 3390, 3397, 1348,  250, 1257, 1264,  249
 954, 3390, 3391, 3398, 3397, 1257, 1258, 1265, 1264
 955, 3391, 3392, 3399, 3398, 1258, 1259, 1266, 1265
 956, 3392, 3393, 3400, 3399, 1259, 1260, 1267, 1266
 957, 3393, 3394, 3401, 3400, 1260, 1261, 1268, 1267
 958, 3394, 3395, 3402, 3401, 1261, 1262, 1269, 1268
 959, 3395, 3396, 3403, 3402, 1262, 1263, 1270, 1269
 960, 3396, 1374, 1375, 3403, 1263,  238,  239, 1270
 961, 1348, 3397, 3404, 1349,  249, 1264, 1271,  248
 962, 3397, 3398, 3405, 3404, 1264, 1265, 1272, 1271
 963, 3398, 3399, 3406, 3405, 1265, 1266, 1273, 1272
 964, 3399, 3400, 3407, 3406, 1266, 1267, 1274, 1273
 965, 3400, 3401, 3408, 3407, 1267, 1268, 1275, 1274
 966, 3401, 3402, 3409, 3408, 1268, 1269, 1276, 1275
 967, 3402, 3403, 3410, 3409, 1269, 1270, 1277, 1276
 968, 3403, 1375, 1376, 3410, 1270,  239,  240, 1277
 969, 1349, 3404, 1416,  289,  248, 1271,  247,   20
 970, 3404, 3405, 1417, 1416, 1271, 1272,  246,  247
 971, 3405, 3406, 1418, 1417, 1272, 1273,  245,  246
 972, 3406, 3407, 1419, 1418, 1273, 1274,  244,  245
 973, 3407, 3408, 1420, 1419, 1274, 1275,  243,  244
 974, 3408, 3409, 1421, 1420, 1275, 1276,  242,  243
 975, 3409, 3410, 1422, 1421, 1276, 1277,  241,  242
 976, 3410, 1376,  297, 1422, 1277,  240,   19,  241
 977,  293, 1402, 3411, 1350,  294, 1395, 3348, 1341
 978, 1402, 1403, 3412, 3411, 1395, 1396, 3349, 3348
 979, 1403, 1404, 3413, 3412, 1396, 1397, 3350, 3349
 980, 1404, 1405, 3414, 3413, 1397, 1398, 3351, 3350
 981, 1405, 1406, 3415, 3414, 1398, 1399, 3352, 3351
 982, 1406, 1407, 3416, 3415, 1399, 1400, 3353, 3352
 983, 1407, 1408, 3417, 3416, 1400, 1401, 3354, 3353
 984, 1408,  299, 1377, 3417, 1401,  298, 1368, 3354
 985, 1350, 3411, 3418, 1351, 1341, 3348, 3355, 1342
 986, 3411, 3412, 3419, 3418, 3348, 3349, 3356, 3355
 987, 3412, 3413, 3420, 3419, 3349, 3350, 3357, 3356
 988, 3413, 3414, 3421, 3420, 3350, 3351, 3358, 3357
 989, 3414, 3415, 3422, 3421, 3351, 3352, 3359, 3358
 990, 3415, 3416, 3423, 3422, 3352, 3353, 3360, 3359
 991, 3416, 3417, 3424, 3423, 3353, 3354, 3361, 3360
 992, 3417, 1377, 1378, 3424, 3354, 1368, 1369, 3361
 993, 1351, 3418, 3425, 1352, 1342, 3355, 3362, 1343
 994, 3418, 3419, 3426, 3425, 3355, 3356, 3363, 3362
 995, 3419, 3420, 3427, 3426, 3356, 3357, 3364, 3363
 996, 3420, 3421, 3428, 3427, 3357, 3358, 3365, 3364
 997, 3421, 3422, 3429, 3428, 3358, 3359, 3366, 3365
 998, 3422, 3423, 3430, 3429, 3359, 3360, 3367, 3366
 999, 3423, 3424, 3431, 3430, 3360, 3361, 3368, 3367
1000, 3424, 1378, 1379, 3431, 3361, 1369, 1370, 3368
1001, 1352, 3425, 3432, 1353, 1343, 3362, 3369, 1344
1002, 3425, 3426, 3433, 3432, 3362, 3363, 3370, 3369
1003, 3426, 3427, 3434, 3433, 3363, 3364, 3371, 3370
1004, 3427, 3428, 3435, 3434, 3364, 3365, 3372, 3371
1005, 3428, 3429, 3436, 3435, 3365, 3366, 3373, 3372
1006, 3429, 3430, 3437, 3436, 3366, 3367, 3374, 3373
1007, 3430, 3431, 3438, 3437, 3367, 3368, 3375, 3374
1008, 3431, 1379, 1380, 3438, 3368, 1370, 1371, 3375
1009, 1353, 3432, 3439, 1354, 1344, 3369, 3376, 1345
1010, 3432, 3433, 3440, 3439, 3369, 3370, 3377, 3376
1011, 3433, 3434, 3441, 3440, 3370, 3371, 3378, 3377
1012, 3434, 3435, 3442, 3441, 3371, 3372, 3379, 3378
1013, 3435, 3436, 3443, 3442, 3372, 3373, 3380, 3379
1014, 3436, 3437, 3444, 3443, 3373, 3374, 3381, 3380
1015, 3437, 3438, 3445, 3444, 3374, 3375, 3382, 3381
1016, 3438, 1380, 1381, 3445, 3375, 1371, 1372, 3382
1017, 1354, 3439, 3446, 1355, 1345, 3376, 3383, 1346
1018, 3439, 3440, 3447, 3446, 3376, 3377, 3384, 3383
1019, 3440, 3441, 3448, 3447, 3377, 3378, 3385, 3384
1020, 3441, 3442, 3449, 3448, 3378, 3379, 3386, 3385
1021, 3442, 3443, 3450, 3449, 3379, 3380, 3387, 3386
1022, 3443, 3444, 3451, 3450, 3380, 3381, 3388, 3387
1023, 3444, 3445, 3452, 3451, 3381, 3382, 3389, 3388
1024, 3445, 1381, 1382, 3452, 3382, 1372, 1373, 3389
1025, 1355, 3446, 3453, 1356, 1346, 3383, 3390, 1347
1026, 3446, 3447, 3454, 3453, 3383, 3384, 3391, 3390
1027, 3447, 3448, 3455, 3454, 3384, 3385, 3392, 3391
1028, 3448, 3449, 3456, 3455, 3385, 3386, 3393, 3392
1029, 3449, 3450, 3457, 3456, 3386, 3387, 3394, 3393
1030, 3450, 3451, 3458, 3457, 3387, 3388, 3395, 3394
1031, 3451, 3452, 3459, 3458, 3388, 3389, 3396, 3395
1032, 3452, 1382, 1383, 3459, 3389, 1373, 1374, 3396
1033, 1356, 3453, 3460, 1357, 1347, 3390, 3397, 1348
1034, 3453, 3454, 3461, 3460, 3390, 3391, 3398, 3397
1035, 3454, 3455, 3462, 3461, 3391, 3392, 3399, 3398
1036, 3455, 3456, 3463, 3462, 3392, 3393, 3400, 3399
1037, 3456, 3457, 3464, 3463, 3393, 3394, 3401, 3400
1038, 3457, 3458, 3465, 3464, 3394, 3395, 3402, 3401
1039, 3458, 3459, 3466, 3465, 3395, 3396, 3403, 3402
1040, 3459, 1383, 1384, 3466, 3396, 1374, 1375, 3403
1041, 1357, 3460, 3467, 1358, 1348, 3397, 3404, 1349
1042, 3460, 3461, 3468, 3467, 3397, 3398, 3405, 3404
1043, 3461, 3462, 3469, 3468, 3398, 3399, 3406, 3405
1044, 3462, 3463, 3470, 3469, 3399, 3400, 3407, 3406
1045, 3463, 3464, 3471, 3470, 3400, 3401, 3408, 3407
1046, 3464, 3465, 3472, 3471, 3401, 3402, 3409, 3408
1047, 3465, 3466, 3473, 3472, 3402, 3403, 3410, 3409
1048, 3466, 1384, 1385, 3473, 3403, 1375, 1376, 3410
1049, 1358, 3467, 1423,  290, 1349, 3404, 1416,  289
1050, 3467, 3468, 1424, 1423, 3404, 3405, 1417, 1416
1051, 3468, 3469, 1425, 1424, 3405, 3406, 1418, 1417
1052, 3469, 3470, 1426, 1425, 3406, 3407, 1419, 1418
1053, 3470, 3471, 1427, 1426, 3407, 3408, 1420, 1419
1054, 3471, 3472, 1428, 1427, 3408, 3409, 1421, 1420
1055, 3472, 3473, 1429, 1428, 3409, 3410, 1422, 1421
1056, 3473, 1385,  296, 1429, 3410, 1376,  297, 1422
1057,  292, 1409, 3474, 1359,  293, 1402, 3411, 1350
1058, 1409, 1410, 3475, 3474, 1402, 1403, 3412, 3411
1059, 1410, 1411, 3476, 3475, 1403, 1404, 3413, 3412
1060, 1411, 1412, 3477, 3476, 1404, 1405, 3414, 3413
1061, 1412, 1413, 3478, 3477, 1405, 1406, 3415, 3414
1062, 1413, 1414, 3479, 3478, 1406, 1407, 3416, 3415
1063, 1414, 1415, 3480, 3479, 1407, 1408, 3417, 3416
1064, 1415,  300, 1386, 3480, 1408,  299, 1377, 3417
1065, 1359, 3474, 3481, 1360, 1350, 3411, 3418, 1351
1066, 3474, 3475, 3482, 3481, 3411, 3412, 3419, 3418
1067, 3475, 3476, 3483, 3482, 3412, 3413, 3420, 3419
1068, 3476, 3477, 3484, 3483, 3413, 3414, 3421, 3420
1069, 3477, 3478, 3485, 3484, 3414, 3415, 3422, 3421
1070, 3478, 3479, 3486, 3485, 3415, 3416, 3423, 3422
1071, 3479, 3480, 3487, 3486, 3416, 3417, 3424, 3423
1072, 3480, 1386, 1387, 3487, 3417, 1377, 1378, 3424
1073, 1360, 3481, 3488, 1361, 1351, 3418, 3425, 1352
1074, 3481, 3482, 3489, 3488, 3418, 3419, 3426, 3425
1075, 3482, 3483, 3490, 3489, 3419, 3420, 3427, 3426
1076, 3483, 3484, 3491, 3490, 3420, 3421, 3428, 3427
1077, 3484, 3485, 3492, 3491, 3421, 3422, 3429, 3428
1078, 3485, 3486, 3493, 3492, 3422, 3423, 3430, 3429
1079, 3486, 3487, 3494, 3493, 3423, 3424, 3431, 3430
1080, 3487, 1387, 1388, 3494, 3424, 1378, 1379, 3431
1081, 1361, 3488, 3495, 1362, 1352, 3425, 3432, 1353
1082, 3488, 3489, 3496, 3495, 3425, 3426, 3433, 3432
1083, 3489, 3490, 3497, 3496, 3426, 3427, 3434, 3433
1084, 3490, 3491, 3498, 3497, 3427, 3428, 3435, 3434
1085, 3491, 3492, 3499, 3498, 3428, 3429, 3436, 3435
1086, 3492, 3493, 3500, 3499, 3429, 3430, 3437, 3436
1087, 3493, 3494, 3501, 3500, 3430, 3431, 3438, 3437
1088, 3494, 1388, 1389, 3501, 3431, 1379, 1380, 3438
1089, 1362, 3495, 3502, 1363, 1353, 3432, 3439, 1354
1090, 3495, 3496, 3503, 3502, 3432, 3433, 3440, 3439
1091, 3496, 3497, 3504, 3503, 3433, 3434, 3441, 3440
1092, 3497, 3498, 3505, 3504, 3434, 3435, 3442, 3441
1093, 3498, 3499, 3506, 3505, 3435, 3436, 3443, 3442
1094, 3499, 3500, 3507, 3506, 3436, 3437, 3444, 3443
1095, 3500, 3501, 3508, 3507, 3437, 3438, 3445, 3444
1096, 3501, 1389, 1390, 3508, 3438, 1380, 1381, 3445
1097, 1363, 3502, 3509, 1364, 1354, 3439, 3446, 1355
1098, 3502, 3503, 3510, 3509, 3439, 3440, 3447, 3446
1099, 3503, 3504, 3511, 3510, 3440, 3441, 3448, 3447
1100, 3504, 3505, 3512, 3511, 3441, 3442, 3449, 3448
1101, 3505, 3506, 3513, 3512, 3442, 3443, 3450, 3449
1102, 3506, 3507, 3514, 3513, 3443, 3444, 3451, 3450
1103, 3507, 3508, 3515, 3514, 3444, 3445, 3452, 3451
1104, 3508, 1390, 1391, 3515, 3445, 1381, 1382, 3452
1105, 1364, 3509, 3516, 1365, 1355, 3446, 3453, 1356
1106, 3509, 3510, 3517, 3516, 3446, 3447, 3454, 3453
1107, 3510, 3511, 3518, 3517, 3447, 3448, 3455, 3454
1108, 3511, 3512, 3519, 3518, 3448, 3449, 3456, 3455
1109, 3512, 3513, 3520, 3519, 3449, 3450, 3457, 3456
1110, 3513, 3514, 3521, 3520, 3450, 3451, 3458, 3457
1111, 3514, 3515, 3522, 3521, 3451, 3452, 3459, 3458
1112, 3515, 1391, 1392, 3522, 3452, 1382, 1383, 3459
1113, 1365, 3516, 3523, 1366, 1356, 3453, 3460, 1357
1114, 3516, 3517, 3524, 3523, 3453, 3454, 3461, 3460
1115, 3517, 3518, 3525, 3524, 3454, 3455, 3462, 3461
1116, 3518, 3519, 3526, 3525, 3455, 3456, 3463, 3462
1117, 3519, 3520, 3527, 3526, 3456, 3457, 3464, 3463
1118, 3520, 3521, 3528, 3527, 3457, 3458, 3465, 3464
1119, 3521, 3522, 3529, 3528, 3458, 3459, 3466, 3465
1120, 3522, 1392, 1393, 3529, 3459, 1383, 1384, 3466
1121, 1366, 3523, 3530, 1367, 1357, 3460, 3467, 1358
1122, 3523, 3524, 3531, 3530, 3460, 3461, 3468, 3467
1123, 3524, 3525, 3532, 3531, 3461, 3462, 3469, 3468
1124, 3525, 3526, 3533, 3532, 3462, 3463, 3470, 3469
1125, 3526, 3527, 3534, 3533, 3463, 3464, 3471, 3470
1126, 3527, 3528, 3535, 3534, 3464, 3465, 3472, 3471
1127, 3528, 3529, 3536, 3535, 3465, 3466, 3473, 3472
1128, 3529, 1393, 1394, 3536, 3466, 1384, 1385, 3473
1129, 1367, 3530, 1430,  291, 1358, 3467, 1423,  290
1130, 3530, 3531, 1431, 1430, 3467, 3468, 1424, 1423
1131, 3531, 3532, 1432, 1431, 3468, 3469, 1425, 1424
1132, 3532, 3533, 1433, 1432, 3469, 3470, 1426, 1425
1133, 3533, 3534, 1434, 1433, 3470, 3471, 1427, 1426
1134, 3534, 3535, 1435, 1434, 3471, 3472, 1428, 1427
1135, 3535, 3536, 1436, 1435, 3472, 3473, 1429, 1428
1136, 3536, 1394,  295, 1436, 3473, 1385,  296, 1429
1137,   14,  263, 1278,  280,  292, 1409, 3474, 1359
1138,  263,  262, 1279, 1278, 1409, 1410, 3475, 3474
1139,  262,  261, 1280, 1279, 1410, 1411, 3476, 3475
1140,  261,  260, 1281, 1280, 1411, 1412, 3477, 3476
1141,  260,  259, 1282, 1281, 1412, 1413, 3478, 3477
1142,  259,  258, 1283, 1282, 1413, 1414, 3479, 3478
1143,  258,  257, 1284, 1283, 1414, 1415, 3480, 3479
1144,  257,   21,  272, 1284, 1415,  300, 1386, 3480
1145,  280, 1278, 1285,  281, 1359, 3474, 3481, 1360
1146, 1278, 1279, 1286, 1285, 3474, 3475, 3482, 3481
1147, 1279, 1280, 1287, 1286, 3475, 3476, 3483, 3482
1148, 1280, 1281, 1288, 1287, 3476, 3477, 3484, 3483
1149, 1281, 1282, 1289, 1288, 3477, 3478, 3485, 3484
1150, 1282, 1283, 1290, 1289, 3478, 3479, 3486, 3485
1151, 1283, 1284, 1291, 1290, 3479, 3480, 3487, 3486
1152, 1284,  272,  271, 1291, 3480, 1386, 1387, 3487
1153,  281, 1285, 1292,  282, 1360, 3481, 3488, 1361
1154, 1285, 1286, 1293, 1292, 3481, 3482, 3489, 3488
1155, 1286, 1287, 1294, 1293, 3482, 3483, 3490, 3489
1156, 1287, 1288, 1295, 1294, 3483, 3484, 3491, 3490
1157, 1288, 1289, 1296, 1295, 3484, 3485, 3492, 3491
1158, 1289, 1290, 1297, 1296, 3485, 3486, 3493, 3492
1159, 1290, 1291, 1298, 1297, 3486, 3487, 3494, 3493
1160, 1291,  271,  270, 1298, 3487, 1387, 1388, 3494
1161,  282, 1292, 1299,  283, 1361, 3488, 3495, 1362
1162, 1292, 1293, 1300, 1299, 3488, 3489, 3496, 3495
1163, 1293, 1294, 1301, 1300, 3489, 3490, 3497, 3496
1164, 1294, 1295, 1302, 1301, 3490, 3491, 3498, 3497
1165, 1295, 1296, 1303, 1302, 3491, 3492, 3499, 3498
1166, 1296, 1297, 1304, 1303, 3492, 3493, 3500, 3499
1167, 1297, 1298, 1305, 1304, 3493, 3494, 3501, 3500
1168, 1298,  270,  269, 1305, 3494, 1388, 1389, 3501
1169,  283, 1299, 1306,  284, 1362, 3495, 3502, 1363
1170, 1299, 1300, 1307, 1306, 3495, 3496, 3503, 3502
1171, 1300, 1301, 1308, 1307, 3496, 3497, 3504, 3503
1172, 1301, 1302, 1309, 1308, 3497, 3498, 3505, 3504
1173, 1302, 1303, 1310, 1309, 3498, 3499, 3506, 3505
1174, 1303, 1304, 1311, 1310, 3499, 3500, 3507, 3506
1175, 1304, 1305, 1312, 1311, 3500, 3501, 3508, 3507
1176, 1305,  269,  268, 1312, 3501, 1389, 1390, 3508
1177,  284, 1306, 1313,  285, 1363, 3502, 3509, 1364
1178, 1306, 1307, 1314, 1313, 3502, 3503, 3510, 3509
1179, 1307, 1308, 1315, 1314, 3503, 3504, 3511, 3510
1180, 1308, 1309, 1316, 1315, 3504, 3505, 3512, 3511
1181, 1309, 1310, 1317, 1316, 3505, 3506, 3513, 3512
1182, 1310, 1311, 1318, 1317, 3506, 3507, 3514, 3513
1183, 1311, 1312, 1319, 1318, 3507, 3508, 3515, 3514
1184, 1312,  268,  267, 1319, 3508, 1390, 1391, 3515
1185,  285, 1313, 1320,  286, 1364, 3509, 3516, 1365
1186, 1313, 1314, 1321, 1320, 3509, 3510, 3517, 3516
1187, 1314, 1315, 1322, 1321, 3510, 3511, 3518, 3517
1188, 1315, 1316, 1323, 1322, 3511, 3512, 3519, 3518
1189, 1316, 1317, 1324, 1323, 3512, 3513, 3520, 3519
1190, 1317, 1318, 1325, 1324, 3513, 3514, 3521, 3520
1191, 1318, 1319, 1326, 1325, 3514, 3515, 3522, 3521
1192, 1319,  267,  266, 1326, 3515, 1391, 1392, 3522
1193,  286, 1320, 1327,  287, 1365, 3516, 3523, 1366
1194, 1320, 1321, 1328, 1327, 3516, 3517, 3524, 3523
1195, 1321, 1322, 1329, 1328, 3517, 3518, 3525, 3524
1196, 1322, 1323, 1330, 1329, 3518, 3519, 3526, 3525
1197, 1323, 1324, 1331, 1330, 3519, 3520, 3527, 3526
1198, 1324, 1325, 1332, 1331, 3520, 3521, 3528, 3527
1199, 1325, 1326, 1333, 1332, 3521, 3522, 3529, 3528
1200, 1326,  266,  265, 1333, 3522, 1392, 1393, 3529
1201,  287, 1327, 1334,  288, 1366, 3523, 3530, 1367
1202, 1327, 1328, 1335, 1334, 3523, 3524, 3531, 3530
1203, 1328, 1329, 1336, 1335, 3524, 3525, 3532, 3531
1204, 1329, 1330, 1337, 1336, 3525, 3526, 3533, 3532
1205, 1330, 1331, 1338, 1337, 3526, 3527, 3534, 3533
1206, 1331, 1332, 1339, 1338, 3527, 3528, 3535, 3534
1207, 1332, 1333, 1340, 1339, 3528, 3529, 3536, 3535
1208, 1333,  265,  264, 1340, 3529, 1393, 1394, 3536
1209,  288, 1334,  273,   23, 1367, 3530, 1430,  291
1210, 1334, 1335,  274,  273, 3530, 3531, 1431, 1430
1211, 1335, 1336,  275,  274, 3531, 3532, 1432, 1431
1212, 1336, 1337,  276,  275, 3532, 3533, 1433, 1432
1213, 1337, 1338,  277,  276, 3533, 3534, 1434, 1433
1214, 1338, 1339,  278,  277, 3534, 3535, 1435, 1434
1215, 1339, 1340,  279,  278, 3535, 3536, 1436, 1435
1216, 1340,  264,   22,  279, 3536, 1394,  295, 1436
1217,  221, 1500, 3537, 1458,   14,  292, 1409,  263
1218, 1500, 1501, 3538, 3537,  292,  293, 1402, 1409
1219, 1501, 1502, 3539, 3538,  293,  294, 1395, 1402
1220, 1502,  327, 1479, 3539,  294,   17,  225, 1395
1221, 1458, 3537, 3540, 1459,  263, 1409, 1410,  262
1222, 3537, 3538, 3541, 3540, 1409, 1402, 1403, 1410
1223, 3538, 3539, 3542, 3541, 1402, 1395, 1396, 1403
1224, 3539, 1479, 1480, 3542, 1395,  225,  226, 1396
1225, 1459, 3540, 3543, 1460,  262, 1410, 1411,  261
1226, 3540, 3541, 3544, 3543, 1410, 1403, 1404, 1411
1227, 3541, 3542, 3545, 3544, 1403, 1396, 1397, 1404
1228, 3542, 1480, 1481, 3545, 1396,  226,  227, 1397
1229, 1460, 3543, 3546, 1461,  261, 1411, 1412,  260
1230, 3543, 3544, 3547, 3546, 1411, 1404, 1405, 1412
1231, 3544, 3545, 3548, 3547, 1404, 1397, 1398, 1405
1232, 3545, 1481, 1482, 3548, 1397,  227,  228, 1398
1233, 1461, 3546, 3549, 1462,  260, 1412, 1413,  259
1234, 3546, 3547, 3550, 3549, 1412, 1405, 1406, 1413
1235, 3547, 3548, 3551, 3550, 1405, 1398, 1399, 1406
1236, 3548, 1482, 1483, 3551, 1398,  228,  229, 1399
1237, 1462, 3549, 3552, 1463,  259, 1413, 1414,  258
1238, 3549, 3550, 3553, 3552, 1413, 1406, 1407, 1414
1239, 3550, 3551, 3554, 3553, 1406, 1399, 1400, 1407
1240, 3551, 1483, 1484, 3554, 1399,  229,  230, 1400
1241, 1463, 3552, 3555, 1464,  258, 1414, 1415,  257
1242, 3552, 3553, 3556, 3555, 1414, 1407, 1408, 1415
1243, 3553, 3554, 3557, 3556, 1407, 1400, 1401, 1408
1244, 3554, 1484, 1485, 3557, 1400,  230,  231, 1401
1245, 1464, 3555, 1509,  321,  257, 1415,  300,   21
1246, 3555, 3556, 1510, 1509, 1415, 1408,  299,  300
1247, 3556, 3557, 1511, 1510, 1408, 1401,  298,  299
1248, 3557, 1485,  326, 1511, 1401,  231,   18,  298
1249,  220, 1503, 3558, 1465,  221, 1500, 3537, 1458
1250, 1503, 1504, 3559, 3558, 1500, 1501, 3538, 3537
1251, 1504, 1505, 3560, 3559, 1501, 1502, 3539, 3538
1252, 1505,  328, 1486, 3560, 1502,  327, 1479, 3539
1253, 1465, 3558, 3561, 1466, 1458, 3537, 3540, 1459
1254, 3558, 3559, 3562, 3561, 3537, 3538, 3541, 3540
1255, 3559, 3560, 3563, 3562, 3538, 3539, 3542, 3541
1256, 3560, 1486, 1487, 3563, 3539, 1479, 1480, 3542
1257, 1466, 3561, 3564, 1467, 1459, 3540, 3543, 1460
1258, 3561, 3562, 3565, 3564, 3540, 3541, 3544, 3543
1259, 3562, 3563, 3566, 3565, 3541, 3542, 3545, 3544
1260, 3563, 1487, 1488, 3566, 3542, 1480, 1481, 3545
1261, 1467, 3564, 3567, 1468, 1460, 3543, 3546, 1461
1262, 3564, 3565, 3568, 3567, 3543, 3544, 3547, 3546
1263, 3565, 3566, 3569, 3568, 3544, 3545, 3548, 3547
1264, 3566, 1488, 1489, 3569, 3545, 1481, 1482, 3548
1265, 1468, 3567, 3570, 1469, 1461, 3546, 3549, 1462
1266, 3567, 3568, 3571, 3570, 3546, 3547, 3550, 3549
1267, 3568, 3569, 3572, 3571, 3547, 3548, 3551, 3550
1268, 3569, 1489, 1490, 3572, 3548, 1482, 1483, 3551
1269, 1469, 3570, 3573, 1470, 1462, 3549, 3552, 1463
1270, 3570, 3571, 3574, 3573, 3549, 3550, 3553, 3552
1271, 3571, 3572, 3575, 3574, 3550, 3551, 3554, 3553
1272, 3572, 1490, 1491, 3575, 3551, 1483, 1484, 3554
1273, 1470, 3573, 3576, 1471, 1463, 3552, 3555, 1464
1274, 3573, 3574, 3577, 3576, 3552, 3553, 3556, 3555
1275, 3574, 3575, 3578, 3577, 3553, 3554, 3557, 3556
1276, 3575, 1491, 1492, 3578, 3554, 1484, 1485, 3557
1277, 1471, 3576, 1512,  322, 1464, 3555, 1509,  321
1278, 3576, 3577, 1513, 1512, 3555, 3556, 1510, 1509
1279, 3577, 3578, 1514, 1513, 3556, 3557, 1511, 1510
1280, 3578, 1492,  325, 1514, 3557, 1485,  326, 1511
1281,  219, 1506, 3579, 1472,  220, 1503, 3558, 1465
1282, 1506, 1507, 3580, 3579, 1503, 1504, 3559, 3558
1283, 1507, 1508, 3581, 3580, 1504, 1505, 3560, 3559
1284, 1508,  329, 1493, 3581, 1505,  328, 1486, 3560
1285, 1472, 3579, 3582, 1473, 1465, 3558, 3561, 1466
1286, 3579, 3580, 3583, 3582, 3558, 3559, 3562, 3561
1287, 3580, 3581, 3584, 3583, 3559, 3560, 3563, 3562
1288, 3581, 1493, 1494, 3584, 3560, 1486, 1487, 3563
1289, 1473, 3582, 3585, 1474, 1466, 3561, 3564, 1467
1290, 3582, 3583, 3586, 3585, 3561, 3562, 3565, 3564
1291, 3583, 3584, 3587, 3586, 3562, 3563, 3566, 3565
1292, 3584, 1494, 1495, 3587, 3563, 1487, 1488, 3566
1293, 1474, 3585, 3588, 1475, 1467, 3564, 3567, 1468
1294, 3585, 3586, 3589, 3588, 3564, 3565, 3568, 3567
1295, 3586, 3587, 3590, 3589, 3565, 3566, 3569, 3568
1296, 3587, 1495, 1496, 3590, 3566, 1488, 1489, 3569
1297, 1475, 3588, 3591, 1476, 1468, 3567, 3570, 1469
1298, 3588, 3589, 3592, 3591, 3567, 3568, 3571, 3570
1299, 3589, 3590, 3593, 3592, 3568, 3569, 3572, 3571
1300, 3590, 1496, 1497, 3593, 3569, 1489, 1490, 3572
1301, 1476, 3591, 3594, 1477, 1469, 3570, 3573, 1470
1302, 3591, 3592, 3595, 3594, 3570, 3571, 3574, 3573
1303, 3592, 3593, 3596, 3595, 3571, 3572, 3575, 3574
1304, 3593, 1497, 1498, 3596, 3572, 1490, 1491, 3575
1305, 1477, 3594, 3597, 1478, 1470, 3573, 3576, 1471
1306, 3594, 3595, 3598, 3597, 3573, 3574, 3577, 3576
1307, 3595, 3596, 3599, 3598, 3574, 3575, 3578, 3577
1308, 3596, 1498, 1499, 3599, 3575, 1491, 1492, 3578
1309, 1478, 3597, 1515,  323, 1471, 3576, 1512,  322
1310, 3597, 3598, 1516, 1515, 3576, 3577, 1513, 1512
1311, 3598, 3599, 1517, 1516, 3577, 3578, 1514, 1513
1312, 3599, 1499,  324, 1517, 3578, 1492,  325, 1514
1313,   16,  303, 1437,  314,  219, 1506, 3579, 1472
1314,  303,  302, 1438, 1437, 1506, 1507, 3580, 3579
1315,  302,  301, 1439, 1438, 1507, 1508, 3581, 3580
1316,  301,   24,  310, 1439, 1508,  329, 1493, 3581
1317,  314, 1437, 1440,  315, 1472, 3579, 3582, 1473
1318, 1437, 1438, 1441, 1440, 3579, 3580, 3583, 3582
1319, 1438, 1439, 1442, 1441, 3580, 3581, 3584, 3583
1320, 1439,  310,  309, 1442, 3581, 1493, 1494, 3584
1321,  315, 1440, 1443,  316, 1473, 3582, 3585, 1474
1322, 1440, 1441, 1444, 1443, 3582, 3583, 3586, 3585
1323, 1441, 1442, 1445, 1444, 3583, 3584, 3587, 3586
1324, 1442,  309,  308, 1445, 3584, 1494, 1495, 3587
1325,  316, 1443, 1446,  317, 1474, 3585, 3588, 1475
1326, 1443, 1444, 1447, 1446, 3585, 3586, 3589, 3588
1327, 1444, 1445, 1448, 1447, 3586, 3587, 3590, 3589
1328, 1445,  308,  307, 1448, 3587, 1495, 1496, 3590
1329,  317, 1446, 1449,  318, 1475, 3588, 3591, 1476
1330, 1446, 1447, 1450, 1449, 3588, 3589, 3592, 3591
1331, 1447, 1448, 1451, 1450, 3589, 3590, 3593, 3592
1332, 1448,  307,  306, 1451, 3590, 1496, 1497, 3593
1333,  318, 1449, 1452,  319, 1476, 3591, 3594, 1477
1334, 1449, 1450, 1453, 1452, 3591, 3592, 3595, 3594
1335, 1450, 1451, 1454, 1453, 3592, 3593, 3596, 3595
1336, 1451,  306,  305, 1454, 3593, 1497, 1498, 3596
1337,  319, 1452, 1455,  320, 1477, 3594, 3597, 1478
1338, 1452, 1453, 1456, 1455, 3594, 3595, 3598, 3597
1339, 1453, 1454, 1457, 1456, 3595, 3596, 3599, 3598
1340, 1454,  305,  304, 1457, 3596, 1498, 1499, 3599
1341,  320, 1455,  311,   26, 1478, 3597, 1515,  323
1342, 1455, 1456,  312,  311, 3597, 3598, 1516, 1515
1343, 1456, 1457,  313,  312, 3598, 3599, 1517, 1516
1344, 1457,  304,   25,  313, 3599, 1499,  324, 1517
1345,  352, 1548, 3600, 1539,   27,  330, 1518,  346
1346, 1548, 1549, 3601, 3600,  330,  331, 1519, 1518
1347, 1549, 1550, 3602, 3601,  331,  332, 1520, 1519
1348, 1550, 1551, 3603, 3602,  332,  333, 1521, 1520
1349, 1551, 1552, 3604, 3603,  333,  334, 1522, 1521
1350, 1552, 1553, 3605, 3604,  334,  335, 1523, 1522
1351, 1553, 1554, 3606, 3605,  335,  336, 1524, 1523
1352, 1554,  301, 1508, 3606,  336,   24,  329, 1524
1353, 1539, 3600, 3607, 1540,  346, 1518, 1525,  345
1354, 3600, 3601, 3608, 3607, 1518, 1519, 1526, 1525
1355, 3601, 3602, 3609, 3608, 1519, 1520, 1527, 1526
1356, 3602, 3603, 3610, 3609, 1520, 1521, 1528, 1527
1357, 3603, 3604, 3611, 3610, 1521, 1522, 1529, 1528
1358, 3604, 3605, 3612, 3611, 1522, 1523, 1530, 1529
1359, 3605, 3606, 3613, 3612, 1523, 1524, 1531, 1530
1360, 3606, 1508, 1505, 3613, 1524,  329,  328, 1531
1361, 1540, 3607, 3614, 1541,  345, 1525, 1532,  344
1362, 3607, 3608, 3615, 3614, 1525, 1526, 1533, 1532
1363, 3608, 3609, 3616, 3615, 1526, 1527, 1534, 1533
1364, 3609, 3610, 3617, 3616, 1527, 1528, 1535, 1534
1365, 3610, 3611, 3618, 3617, 1528, 1529, 1536, 1535
1366, 3611, 3612, 3619, 3618, 1529, 1530, 1537, 1536
1367, 3612, 3613, 3620, 3619, 1530, 1531, 1538, 1537
1368, 3613, 1505, 1502, 3620, 1531,  328,  327, 1538
1369, 1541, 3614, 1569,  347,  344, 1532,  343,   28
1370, 3614, 3615, 1570, 1569, 1532, 1533,  342,  343
1371, 3615, 3616, 1571, 1570, 1533, 1534,  341,  342
1372, 3616, 3617, 1572, 1571, 1534, 1535,  340,  341
1373, 3617, 3618, 1573, 1572, 1535, 1536,  339,  340
1374, 3618, 3619, 1574, 1573, 1536, 1537,  338,  339
1375, 3619, 3620, 1575, 1574, 1537, 1538,  337,  338
1376, 3620, 1502,  294, 1575, 1538,  327,   17,  337
1377,  351, 1555, 3621, 1542,  352, 1548, 3600, 1539
1378, 1555, 1556, 3622, 3621, 1548, 1549, 3601, 3600
1379, 1556, 1557, 3623, 3622, 1549, 1550, 3602, 3601
1380, 1557, 1558, 3624, 3623, 1550, 1551, 3603, 3602
1381, 1558, 1559, 3625, 3624, 1551, 1552, 3604, 3603
1382, 1559, 1560, 3626, 3625, 1552, 1553, 3605, 3604
1383, 1560, 1561, 3627, 3626, 1553, 1554, 3606, 3605
1384, 1561,  302, 1507, 3627, 1554,  301, 1508, 3606
1385, 1542, 3621, 3628, 1543, 1539, 3600, 3607, 1540
1386, 3621, 3622, 3629, 3628, 3600, 3601, 3608, 3607
1387, 3622, 3623, 3630, 3629, 3601, 3602, 3609, 3608
1388, 3623, 3624, 3631, 3630, 3602, 3603, 3610, 3609
1389, 3624, 3625, 3632, 3631, 3603, 3604, 3611, 3610
1390, 3625, 3626, 3633, 3632, 3604, 3605, 3612, 3611
1391, 3626, 3627, 3634, 3633, 3605, 3606, 3613, 3612
1392, 3627, 1507, 1504, 3634, 3606, 1508, 1505, 3613
1393, 1543, 3628, 3635, 1544, 1540, 3607, 3614, 1541
1394, 3628, 3629, 3636, 3635, 3607, 3608, 3615, 3614
1395, 3629, 3630, 3637, 3636, 3608, 3609, 3616, 3615
1396, 3630, 3631, 3638, 3637, 3609, 3610, 3617, 3616
1397, 3631, 3632, 3639, 3638, 3610, 3611, 3618, 3617
1398, 3632, 3633, 3640, 3639, 3611, 3612, 3619, 3618
1399, 3633, 3634, 3641, 3640, 3612, 3613, 3620, 3619
1400, 3634, 1504, 1501, 3641, 3613, 1505, 1502, 3620
1401, 1544, 3635, 1576,  348, 1541, 3614, 1569,  347
1402, 3635, 3636, 1577, 1576, 3614, 3615, 1570, 1569
1403, 3636, 3637, 1578, 1577, 3615, 3616, 1571, 1570
1404, 3637, 3638, 1579, 1578, 3616, 3617, 1572, 1571
1405, 3638, 3639, 1580, 1579, 3617, 3618, 1573, 1572
1406, 3639, 3640, 1581, 1580, 3618, 3619, 1574, 1573
1407, 3640, 3641, 1582, 1581, 3619, 3620, 1575, 1574
1408, 3641, 1501,  293, 1582, 3620, 1502,  294, 1575
1409,  350, 1562, 3642, 1545,  351, 1555, 3621, 1542
1410, 1562, 1563, 3643, 3642, 1555, 1556, 3622, 3621
1411, 1563, 1564, 3644, 3643, 1556, 1557, 3623, 3622
1412, 1564, 1565, 3645, 3644, 1557, 1558, 3624, 3623
1413, 1565, 1566, 3646, 3645, 1558, 1559, 3625, 3624
1414, 1566, 1567, 3647, 3646, 1559, 1560, 3626, 3625
1415, 1567, 1568, 3648, 3647, 1560, 1561, 3627, 3626
1416, 1568,  303, 1506, 3648, 1561,  302, 1507, 3627
1417, 1545, 3642, 3649, 1546, 1542, 3621, 3628, 1543
1418, 3642, 3643, 3650, 3649, 3621, 3622, 3629, 3628
1419, 3643, 3644, 3651, 3650, 3622, 3623, 3630, 3629
1420, 3644, 3645, 3652, 3651, 3623, 3624, 3631, 3630
1421, 3645, 3646, 3653, 3652, 3624, 3625, 3632, 3631
1422, 3646, 3647, 3654, 3653, 3625, 3626, 3633, 3632
1423, 3647, 3648, 3655, 3654, 3626, 3627, 3634, 3633
1424, 3648, 1506, 1503, 3655, 3627, 1507, 1504, 3634
1425, 1546, 3649, 3656, 1547, 1543, 3628, 3635, 1544
1426, 3649, 3650, 3657, 3656, 3628, 3629, 3636, 3635
1427, 3650, 3651, 3658, 3657, 3629, 3630, 3637, 3636
1428, 3651, 3652, 3659, 3658, 3630, 3631, 3638, 3637
1429, 3652, 3653, 3660, 3659, 3631, 3632, 3639, 3638
1430, 3653, 3654, 3661, 3660, 3632, 3633, 3640, 3639
1431, 3654, 3655, 3662, 3661, 3633, 3634, 3641, 3640
1432, 3655, 1503, 1500, 3662, 3634, 1504, 1501, 3641
1433, 1547, 3656, 1583,  349, 1544, 3635, 1576,  348
1434, 3656, 3657, 1584, 1583, 3635, 3636, 1577, 1576
1435, 3657, 3658, 1585, 1584, 3636, 3637, 1578, 1577
1436, 3658, 3659, 1586, 1585, 3637, 3638, 1579, 1578
1437, 3659, 3660, 1587, 1586, 3638, 3639, 1580, 1579
1438, 3660, 3661, 1588, 1587, 3639, 3640, 1581, 1580
1439, 3661, 3662, 1589, 1588, 3640, 3641, 1582, 1581
1440, 3662, 1500,  292, 1589, 3641, 1501,  293, 1582
1441,   15,  203, 1118,  224,  350, 1562, 3642, 1545
1442,  203,  202, 1119, 1118, 1562, 1563, 3643, 3642
1443,  202,  201, 1120, 1119, 1563, 1564, 3644, 3643
1444,  201,  200, 1121, 1120, 1564, 1565, 3645, 3644
1445,  200,  199, 1122, 1121, 1565, 1566, 3646, 3645
1446,  199,  198, 1123, 1122, 1566, 1567, 3647, 3646
1447,  198,  197, 1124, 1123, 1567, 1568, 3648, 3647
1448,  197,   16,  219, 1124, 1568,  303, 1506, 3648
1449,  224, 1118, 1111,  223, 1545, 3642, 3649, 1546
1450, 1118, 1119, 1112, 1111, 3642, 3643, 3650, 3649
1451, 1119, 1120, 1113, 1112, 3643, 3644, 3651, 3650
1452, 1120, 1121, 1114, 1113, 3644, 3645, 3652, 3651
1453, 1121, 1122, 1115, 1114, 3645, 3646, 3653, 3652
1454, 1122, 1123, 1116, 1115, 3646, 3647, 3654, 3653
1455, 1123, 1124, 1117, 1116, 3647, 3648, 3655, 3654
1456, 1124,  219,  220, 1117, 3648, 1506, 1503, 3655
1457,  223, 1111, 1104,  222, 1546, 3649, 3656, 1547
1458, 1111, 1112, 1105, 1104, 3649, 3650, 3657, 3656
1459, 1112, 1113, 1106, 1105, 3650, 3651, 3658, 3657
1460, 1113, 1114, 1107, 1106, 3651, 3652, 3659, 3658
1461, 1114, 1115, 1108, 1107, 3652, 3653, 3660, 3659
1462, 1115, 1116, 1109, 1108, 3653, 3654, 3661, 3660
1463, 1116, 1117, 1110, 1109, 3654, 3655, 3662, 3661
1464, 1117,  220,  221, 1110, 3655, 1503, 1500, 3662
1465,  222, 1104,  160,   13, 1547, 3656, 1583,  349
1466, 1104, 1105,  161,  160, 3656, 3657, 1584, 1583
1467, 1105, 1106,  162,  161, 3657, 3658, 1585, 1584
1468, 1106, 1107,  163,  162, 3658, 3659, 1586, 1585
1469, 1107, 1108,  164,  163, 3659, 3660, 1587, 1586
1470, 1108, 1109,  165,  164, 3660, 3661, 1588, 1587
1471, 1109, 1110,  166,  165, 3661, 3662, 1589, 1588
1472, 1110,  221,   14,  166, 3662, 1500,  292, 1589
1473,  392, 1641, 3663, 1632,   29,  353, 1590,  369
1474, 1641, 1642, 3664, 3663,  353,  354, 1591, 1590
1475, 1642, 1643, 3665, 3664,  354,  355, 1592, 1591
1476, 1643, 1644, 3666, 3665,  355,  356, 1593, 1592
1477, 1644, 1645, 3667, 3666,  356,  357, 1594, 1593
1478, 1645, 1646, 3668, 3667,  357,  358, 1595, 1594
1479, 1646, 1647, 3669, 3668,  358,  359, 1596, 1595
1480, 1647,  352, 1539, 3669,  359,   27,  346, 1596
1481, 1632, 3663, 3670, 1633,  369, 1590, 1597,  368
1482, 3663, 3664, 3671, 3670, 1590, 1591, 1598, 1597
1483, 3664, 3665, 3672, 3671, 1591, 1592, 1599, 1598
1484, 3665, 3666, 3673, 3672, 1592, 1593, 1600, 1599
1485, 3666, 3667, 3674, 3673, 1593, 1594, 1601, 1600
1486, 3667, 3668, 3675, 3674, 1594, 1595, 1602, 1601
1487, 3668, 3669, 3676, 3675, 1595, 1596, 1603, 1602
1488, 3669, 1539, 1540, 3676, 1596,  346,  345, 1603
1489, 1633, 3670, 3677, 1634,  368, 1597, 1604,  367
1490, 3670, 3671, 3678, 3677, 1597, 1598, 1605, 1604
1491, 3671, 3672, 3679, 3678, 1598, 1599, 1606, 1605
1492, 3672, 3673, 3680, 3679, 1599, 1600, 1607, 1606
1493, 3673, 3674, 3681, 3680, 1600, 1601, 1608, 1607
1494, 3674, 3675, 3682, 3681, 1601, 1602, 1609, 1608
1495, 3675, 3676, 3683, 3682, 1602, 1603, 1610, 1609
1496, 3676, 1540, 1541, 3683, 1603,  345,  344, 1610
1497, 1634, 3677, 1662,  387,  367, 1604,  366,   30
1498, 3677, 3678, 1663, 1662, 1604, 1605,  365,  366
1499, 3678, 3679, 1664, 1663, 1605, 1606,  364,  365
1500, 3679, 3680, 1665, 1664, 1606, 1607,  363,  364
1501, 3680, 3681, 1666, 1665, 1607, 1608,  362,  363
1502, 3681, 3682, 1667, 1666, 1608, 1609,  361,  362
1503, 3682, 3683, 1668, 1667, 1609, 1610,  360,  361
1504, 3683, 1541,  347, 1668, 1610,  344,   28,  360
1505,  391, 1648, 3684, 1635,  392, 1641, 3663, 1632
1506, 1648, 1649, 3685, 3684, 1641, 1642, 3664, 3663
1507, 1649, 1650, 3686, 3685, 1642, 1643, 3665, 3664
1508, 1650, 1651, 3687, 3686, 1643, 1644, 3666, 3665
1509, 1651, 1652, 3688, 3687, 1644, 1645, 3667, 3666
1510, 1652, 1653, 3689, 3688, 1645, 1646, 3668, 3667
1511, 1653, 1654, 3690, 3689, 1646, 1647, 3669, 3668
1512, 1654,  351, 1542, 3690, 1647,  352, 1539, 3669
1513, 1635, 3684, 3691, 1636, 1632, 3663, 3670, 1633
1514, 3684, 3685, 3692, 3691, 3663, 3664, 3671, 3670
1515, 3685, 3686, 3693, 3692, 3664, 3665, 3672, 3671
1516, 3686, 3687, 3694, 3693, 3665, 3666, 3673, 3672
1517, 3687, 3688, 3695, 3694, 3666, 3667, 3674, 3673
1518, 3688, 3689, 3696, 3695, 3667, 3668, 3675, 3674
1519, 3689, 3690, 3697, 3696, 3668, 3669, 3676, 3675
1520, 3690, 1542, 1543, 3697, 3669, 1539, 1540, 3676
1521, 1636, 3691, 3698, 1637, 1633, 3670, 3677, 1634
1522, 3691, 3692, 3699, 3698, 3670, 3671, 3678, 3677
1523, 3692, 3693, 3700, 3699, 3671, 3672, 3679, 3678
1524, 3693, 3694, 3701, 3700, 3672, 3673, 3680, 3679
1525, 3694, 3695, 3702, 3701, 3673, 3674, 3681, 3680
1526, 3695, 3696, 3703, 3702, 3674, 3675, 3682, 3681
1527, 3696, 3697, 3704, 3703, 3675, 3676, 3683, 3682
1528, 3697, 1543, 1544, 3704, 3676, 1540, 1541, 3683
1529, 1637, 3698, 1669,  388, 1634, 3677, 1662,  387
1530, 3698, 3699, 1670, 1669, 3677, 3678, 1663, 1662
1531, 3699, 3700, 1671, 1670, 3678, 3679, 1664, 1663
1532, 3700, 3701, 1672, 1671, 3679, 3680, 1665, 1664
1533, 3701, 3702, 1673, 1672, 3680, 3681, 1666, 1665
1534, 3702, 3703, 1674, 1673, 3681, 3682, 1667, 1666
1535, 3703, 3704, 1675, 1674, 3682, 3683, 1668, 1667
1536, 3704, 1544,  348, 1675, 3683, 1541,  347, 1668
1537,  390, 1655, 3705, 1638,  391, 1648, 3684, 1635
1538, 1655, 1656, 3706, 3705, 1648, 1649, 3685, 3684
1539, 1656, 1657, 3707, 3706, 1649, 1650, 3686, 3685
1540, 1657, 1658, 3708, 3707, 1650, 1651, 3687, 3686
1541, 1658, 1659, 3709, 3708, 1651, 1652, 3688, 3687
1542, 1659, 1660, 3710, 3709, 1652, 1653, 3689, 3688
1543, 1660, 1661, 3711, 3710, 1653, 1654, 3690, 3689
1544, 1661,  350, 1545, 3711, 1654,  351, 1542, 3690
1545, 1638, 3705, 3712, 1639, 1635, 3684, 3691, 1636
1546, 3705, 3706, 3713, 3712, 3684, 3685, 3692, 3691
1547, 3706, 3707, 3714, 3713, 3685, 3686, 3693, 3692
1548, 3707, 3708, 3715, 3714, 3686, 3687, 3694, 3693
1549, 3708, 3709, 3716, 3715, 3687, 3688, 3695, 3694
1550, 3709, 3710, 3717, 3716, 3688, 3689, 3696, 3695
1551, 3710, 3711, 3718, 3717, 3689, 3690, 3697, 3696
1552, 3711, 1545, 1546, 3718, 3690, 1542, 1543, 3697
1553, 1639, 3712, 3719, 1640, 1636, 3691, 3698, 1637
1554, 3712, 3713, 3720, 3719, 3691, 3692, 3699, 3698
1555, 3713, 3714, 3721, 3720, 3692, 3693, 3700, 3699
1556, 3714, 3715, 3722, 3721, 3693, 3694, 3701, 3700
1557, 3715, 3716, 3723, 3722, 3694, 3695, 3702, 3701
1558, 3716, 3717, 3724, 3723, 3695, 3696, 3703, 3702
1559, 3717, 3718, 3725, 3724, 3696, 3697, 3704, 3703
1560, 3718, 1546, 1547, 3725, 3697, 1543, 1544, 3704
1561, 1640, 3719, 1676,  389, 1637, 3698, 1669,  388
1562, 3719, 3720, 1677, 1676, 3698, 3699, 1670, 1669
1563, 3720, 3721, 1678, 1677, 3699, 3700, 1671, 1670
1564, 3721, 3722, 1679, 1678, 3700, 3701, 1672, 1671
1565, 3722, 3723, 1680, 1679, 3701, 3702, 1673, 1672
1566, 3723, 3724, 1681, 1680, 3702, 3703, 1674, 1673
1567, 3724, 3725, 1682, 1681, 3703, 3704, 1675, 1674
1568, 3725, 1547,  349, 1682, 3704, 1544,  348, 1675
1569,   32,  376, 1611,  384,  390, 1655, 3705, 1638
1570,  376,  375, 1612, 1611, 1655, 1656, 3706, 3705
1571,  375,  374, 1613, 1612, 1656, 1657, 3707, 3706
1572,  374,  373, 1614, 1613, 1657, 1658, 3708, 3707
1573,  373,  372, 1615, 1614, 1658, 1659, 3709, 3708
1574,  372,  371, 1616, 1615, 1659, 1660, 3710, 3709
1575,  371,  370, 1617, 1616, 1660, 1661, 3711, 3710
1576,  370,   15,  224, 1617, 1661,  350, 1545, 3711
1577,  384, 1611, 1618,  385, 1638, 3705, 3712, 1639
1578, 1611, 1612, 1619, 1618, 3705, 3706, 3713, 3712
1579, 1612, 1613, 1620, 1619, 3706, 3707, 3714, 3713
1580, 1613, 1614, 1621, 1620, 3707, 3708, 3715, 3714
1581, 1614, 1615, 1622, 1621, 3708, 3709, 3716, 3715
1582, 1615, 1616, 1623, 1622, 3709, 3710, 3717, 3716
1583, 1616, 1617, 1624, 1623, 3710, 3711, 3718, 3717
1584, 1617,  224,  223, 1624, 3711, 1545, 1546, 3718
1585,  385, 1618, 1625,  386, 1639, 3712, 3719, 1640
1586, 1618, 1619, 1626, 1625, 3712, 3713, 3720, 3719
1587, 1619, 1620, 1627, 1626, 3713, 3714, 3721, 3720
1588, 1620, 1621, 1628, 1627, 3714, 3715, 3722, 3721
1589, 1621, 1622, 1629, 1628, 3715, 3716, 3723, 3722
1590, 1622, 1623, 1630, 1629, 3716, 3717, 3724, 3723
1591, 1623, 1624, 1631, 1630, 3717, 3718, 3725, 3724
1592, 1624,  223,  222, 1631, 3718, 1546, 1547, 3725
1593,  386, 1625,  377,   31, 1640, 3719, 1676,  389
1594, 1625, 1626,  378,  377, 3719, 3720, 1677, 1676
1595, 1626, 1627,  379,  378, 3720, 3721, 1678, 1677
1596, 1627, 1628,  380,  379, 3721, 3722, 1679, 1678
1597, 1628, 1629,  381,  380, 3722, 3723, 1680, 1679
1598, 1629, 1630,  382,  381, 3723, 3724, 1681, 1680
1599, 1630, 1631,  383,  382, 3724, 3725, 1682, 1681
1600, 1631,  222,   13,  383, 3725, 1547,  349, 1682
1601,  349, 1830, 3726, 1583,   13,  393, 1683,  160
1602, 1830, 1831, 3727, 3726,  393,  394, 1684, 1683
1603, 1831, 1832, 3728, 3727,  394,  395, 1685, 1684
1604, 1832, 1833, 3729, 3728,  395,  396, 1686, 1685
1605, 1833, 1834, 3730, 3729,  396,  397, 1687, 1686
1606, 1834, 1835, 3731, 3730,  397,  398, 1688, 1687
1607, 1835, 1836, 3732, 3731,  398,  399, 1689, 1688
1608, 1836, 1837, 3733, 3732,  399,  400, 1690, 1689
1609, 1837, 1838, 3734, 3733,  400,  401, 1691, 1690
1610, 1838,  425, 1809, 3734,  401,   33,  402, 1691
1611, 1583, 3726, 3735, 1584,  160, 1683, 1692,  161
1612, 3726, 3727, 3736, 3735, 1683, 1684, 1693, 1692
1613, 3727, 3728, 3737, 3736, 1684, 1685, 1694, 1693
1614, 3728, 3729, 3738, 3737, 1685, 1686, 1695, 1694
1615, 3729, 3730, 3739, 3738, 1686, 1687, 1696, 1695
1616, 3730, 3731, 3740, 3739, 1687, 1688, 1697, 1696
1617, 3731, 3732, 3741, 3740, 1688, 1689, 1698, 1697
1618, 3732, 3733, 3742, 3741, 1689, 1690, 1699, 1698
1619, 3733, 3734, 3743, 3742, 1690, 1691, 1700, 1699
1620, 3734, 1809, 1810, 3743, 1691,  402,  403, 1700
1621, 1584, 3735, 3744, 1585,  161, 1692, 1701,  162
1622, 3735, 3736, 3745, 3744, 1692, 1693, 1702, 1701
1623, 3736, 3737, 3746, 3745, 1693, 1694, 1703, 1702
1624, 3737, 3738, 3747, 3746, 1694, 1695, 1704, 1703
1625, 3738, 3739, 3748, 3747, 1695, 1696, 1705, 1704
1626, 3739, 3740, 3749, 3748, 1696, 1697, 1706, 1705
1627, 3740, 3741, 3750, 3749, 1697, 1698, 1707, 1706
1628, 3741, 3742, 3751, 3750, 1698, 1699, 1708, 1707
1629, 3742, 3743, 3752, 3751, 1699, 1700, 1709, 1708
1630, 3743, 1810, 1811, 3752, 1700,  403,  404, 1709
1631, 1585, 3744, 3753, 1586,  162, 1701, 1710,  163
1632, 3744, 3745, 3754, 3753, 1701, 1702, 1711, 1710
1633, 3745, 3746, 3755, 3754, 1702, 1703, 1712, 1711
1634, 3746, 3747, 3756, 3755, 1703, 1704, 1713, 1712
1635, 3747, 3748, 3757, 3756, 1704, 1705, 1714, 1713
1636, 3748, 3749, 3758, 3757, 1705, 1706, 1715, 1714
1637, 3749, 3750, 3759, 3758, 1706, 1707, 1716, 1715
1638, 3750, 3751, 3760, 3759, 1707, 1708, 1717, 1716
1639, 3751, 3752, 3761, 3760, 1708, 1709, 1718, 1717
1640, 3752, 1811, 1812, 3761, 1709,  404,  405, 1718
1641, 1586, 3753, 3762, 1587,  163, 1710, 1719,  164
1642, 3753, 3754, 3763, 3762, 1710, 1711, 1720, 1719
1643, 3754, 3755, 3764, 3763, 1711, 1712, 1721, 1720
1644, 3755, 3756, 3765, 3764, 1712, 1713, 1722, 1721
1645, 3756, 3757, 3766, 3765, 1713, 1714, 1723, 1722
1646, 3757, 3758, 3767, 3766, 1714, 1715, 1724, 1723
1647, 3758, 3759, 3768, 3767, 1715, 1716, 1725, 1724
1648, 3759, 3760, 3769, 3768, 1716, 1717, 1726, 1725
1649, 3760, 3761, 3770, 3769, 1717, 1718, 1727, 1726
1650, 3761, 1812, 1813, 3770, 1718,  405,  406, 1727
1651, 1587, 3762, 3771, 1588,  164, 1719, 1728,  165
1652, 3762, 3763, 3772, 3771, 1719, 1720, 1729, 1728
1653, 3763, 3764, 3773, 3772, 1720, 1721, 1730, 1729
1654, 3764, 3765, 3774, 3773, 1721, 1722, 1731, 1730
1655, 3765, 3766, 3775, 3774, 1722, 1723, 1732, 1731
1656, 3766, 3767, 3776, 3775, 1723, 1724, 1733, 1732
1657, 3767, 3768, 3777, 3776, 1724, 1725, 1734, 1733
1658, 3768, 3769, 3778, 3777, 1725, 1726, 1735, 1734
1659, 3769, 3770, 3779, 3778, 1726, 1727, 1736, 1735
1660, 3770, 1813, 1814, 3779, 1727,  406,  407, 1736
1661, 1588, 3771, 3780, 1589,  165, 1728, 1737,  166
1662, 3771, 3772, 3781, 3780, 1728, 1729, 1738, 1737
1663, 3772, 3773, 3782, 3781, 1729, 1730, 1739, 1738
1664, 3773, 3774, 3783, 3782, 1730, 1731, 1740, 1739
1665, 3774, 3775, 3784, 3783, 1731, 1732, 1741, 1740
1666, 3775, 3776, 3785, 3784, 1732, 1733, 1742, 1741
1667, 3776, 3777, 3786, 3785, 1733, 1734, 1743, 1742
1668, 3777, 3778, 3787, 3786, 1734, 1735, 1744, 1743
1669, 3778, 3779, 3788, 3787, 1735, 1736, 1745, 1744
1670, 3779, 1814, 1815, 3788, 1736,  407,  408, 1745
1671, 1589, 3780, 1359,  292,  166, 1737,  280,   14
1672, 3780, 3781, 1360, 1359, 1737, 1738,  281,  280
1673, 3781, 3782, 1361, 1360, 1738, 1739,  282,  281
1674, 3782, 3783, 1362, 1361, 1739, 1740,  283,  282
1675, 3783, 3784, 1363, 1362, 1740, 1741,  284,  283
1676, 3784, 3785, 1364, 1363, 1741, 1742,  285,  284
1677, 3785, 3786, 1365, 1364, 1742, 1743,  286,  285
1678, 3786, 3787, 1366, 1365, 1743, 1744,  287,  286
1679, 3787, 3788, 1367, 1366, 1744, 1745,  288,  287
1680, 3788, 1815,  291, 1367, 1745,  408,   23,  288
1681,  348, 1839, 3789, 1576,  349, 1830, 3726, 1583
1682, 1839, 1840, 3790, 3789, 1830, 1831, 3727, 3726
1683, 1840, 1841, 3791, 3790, 1831, 1832, 3728, 3727
1684, 1841, 1842, 3792, 3791, 1832, 1833, 3729, 3728
1685, 1842, 1843, 3793, 3792, 1833, 1834, 3730, 3729
1686, 1843, 1844, 3794, 3793, 1834, 1835, 3731, 3730
1687, 1844, 1845, 3795, 3794, 1835, 1836, 3732, 3731
1688, 1845, 1846, 3796, 3795, 1836, 1837, 3733, 3732
1689, 1846, 1847, 3797, 3796, 1837, 1838, 3734, 3733
1690, 1847,  426, 1816, 3797, 1838,  425, 1809, 3734
1691, 1576, 3789, 3798, 1577, 1583, 3726, 3735, 1584
1692, 3789, 3790, 3799, 3798, 3726, 3727, 3736, 3735
1693, 3790, 3791, 3800, 3799, 3727, 3728, 3737, 3736
1694, 3791, 3792, 3801, 3800, 3728, 3729, 3738, 3737
1695, 3792, 3793, 3802, 3801, 3729, 3730, 3739, 3738
1696, 3793, 3794, 3803, 3802, 3730, 3731, 3740, 3739
1697, 3794, 3795, 3804, 3803, 3731, 3732, 3741, 3740
1698, 3795, 3796, 3805, 3804, 3732, 3733, 3742, 3741
1699, 3796, 3797, 3806, 3805, 3733, 3734, 3743, 3742
1700, 3797, 1816, 1817, 3806, 3734, 1809, 1810, 3743
1701, 1577, 3798, 3807, 1578, 1584, 3735, 3744, 1585
1702, 3798, 3799, 3808, 3807, 3735, 3736, 3745, 3744
1703, 3799, 3800, 3809, 3808, 3736, 3737, 3746, 3745
1704, 3800, 3801, 3810, 3809, 3737, 3738, 3747, 3746
1705, 3801, 3802, 3811, 3810, 3738, 3739, 3748, 3747
1706, 3802, 3803, 3812, 3811, 3739, 3740, 3749, 3748
1707, 3803, 3804, 3813, 3812, 3740, 3741, 3750, 3749
1708, 3804, 3805, 3814, 3813, 3741, 3742, 3751, 3750
1709, 3805, 3806, 3815, 3814, 3742, 3743, 3752, 3751
1710, 3806, 1817, 1818, 3815, 3743, 1810, 1811, 3752
1711, 1578, 3807, 3816, 1579, 1585, 3744, 3753, 1586
1712, 3807, 3808, 3817, 3816, 3744, 3745, 3754, 3753
1713, 3808, 3809, 3818, 3817, 3745, 3746, 3755, 3754
1714, 3809, 3810, 3819, 3818, 3746, 3747, 3756, 3755
1715, 3810, 3811, 3820, 3819, 3747, 3748, 3757, 3756
1716, 3811, 3812, 3821, 3820, 3748, 3749, 3758, 3757
1717, 3812, 3813, 3822, 3821, 3749, 3750, 3759, 3758
1718, 3813, 3814, 3823, 3822, 3750, 3751, 3760, 3759
1719, 3814, 3815, 3824, 3823, 3751, 3752, 3761, 3760
1720, 3815, 1818, 1819, 3824, 3752, 1811, 1812, 3761
1721, 1579, 3816, 3825, 1580, 1586, 3753, 3762, 1587
1722, 3816, 3817, 3826, 3825, 3753, 3754, 3763, 3762
1723, 3817, 3818, 3827, 3826, 3754, 3755, 3764, 3763
1724, 3818, 3819, 3828, 3827, 3755, 3756, 3765, 3764
1725, 3819, 3820, 3829, 3828, 3756, 3757, 3766, 3765
1726, 3820, 3821, 3830, 3829, 3757, 3758, 3767, 3766
1727, 3821, 3822, 3831, 3830, 3758, 3759, 3768, 3767
1728, 3822, 3823, 3832, 3831, 3759, 3760, 3769, 3768
1729, 3823, 3824, 3833, 3832, 3760, 3761, 3770, 3769
1730, 3824, 1819, 1820, 3833, 3761, 1812, 1813, 3770
1731, 1580, 3825, 3834, 1581, 1587, 3762, 3771, 1588
1732, 3825, 3826, 3835, 3834, 3762, 3763, 3772, 3771
1733, 3826, 3827, 3836, 3835, 3763, 3764, 3773, 3772
1734, 3827, 3828, 3837, 3836, 3764, 3765, 3774, 3773
1735, 3828, 3829, 3838, 3837, 3765, 3766, 3775, 3774
1736, 3829, 3830, 3839, 3838, 3766, 3767, 3776, 3775
1737, 3830, 3831, 3840, 3839, 3767, 3768, 3777, 3776
1738, 3831, 3832, 3841, 3840, 3768, 3769, 3778, 3777
1739, 3832, 3833, 3842, 3841, 3769, 3770, 3779, 3778
1740, 3833, 1820, 1821, 3842, 3770, 1813, 1814, 3779
1741, 1581, 3834, 3843, 1582, 1588, 3771, 3780, 1589
1742, 3834, 3835, 3844, 3843, 3771, 3772, 3781, 3780
1743, 3835, 3836, 3845, 3844, 3772, 3773, 3782, 3781
1744, 3836, 3837, 3846, 3845, 3773, 3774, 3783, 3782
1745, 3837, 3838, 3847, 3846, 3774, 3775, 3784, 3783
1746, 3838, 3839, 3848, 3847, 3775, 3776, 3785, 3784
1747, 3839, 3840, 3849, 3848, 3776, 3777, 3786, 3785
1748, 3840, 3841, 3850, 3849, 3777, 3778, 3787, 3786
1749, 3841, 3842, 3851, 3850, 3778, 3779, 3788, 3787
1750, 3842, 1821, 1822, 3851, 3779, 1814, 1815, 3788
1751, 1582, 3843, 1350,  293, 1589, 3780, 1359,  292
1752, 3843, 3844, 1351, 1350, 3780, 3781, 1360, 1359
1753, 3844, 3845, 1352, 1351, 3781, 3782, 1361, 1360
1754, 3845, 3846, 1353, 1352, 3782, 3783, 1362, 1361
1755, 3846, 3847, 1354, 1353, 3783, 3784, 1363, 1362
1756, 3847, 3848, 1355, 1354, 3784, 3785, 1364, 1363
1757, 3848, 3849, 1356, 1355, 3785, 3786, 1365, 1364
1758, 3849, 3850, 1357, 1356, 3786, 3787, 1366, 1365
1759, 3850, 3851, 1358, 1357, 3787, 3788, 1367, 1366
1760, 3851, 1822,  290, 1358, 3788, 1815,  291, 1367
1761,  347, 1848, 3852, 1569,  348, 1839, 3789, 1576
1762, 1848, 1849, 3853, 3852, 1839, 1840, 3790, 3789
1763, 1849, 1850, 3854, 3853, 1840, 1841, 3791, 3790
1764, 1850, 1851, 3855, 3854, 1841, 1842, 3792, 3791
1765, 1851, 1852, 3856, 3855, 1842, 1843, 3793, 3792
1766, 1852, 1853, 3857, 3856, 1843, 1844, 3794, 3793
1767, 1853, 1854, 3858, 3857, 1844, 1845, 3795, 3794
1768, 1854, 1855, 3859, 3858, 1845, 1846, 3796, 3795
1769, 1855, 1856, 3860, 3859, 1846, 1847, 3797, 3796
1770, 1856,  427, 1823, 3860, 1847,  426, 1816, 3797
1771, 1569, 3852, 3861, 1570, 1576, 3789, 3798, 1577
1772, 3852, 3853, 3862, 3861, 3789, 3790, 3799, 3798
1773, 3853, 3854, 3863, 3862, 3790, 3791, 3800, 3799
1774, 3854, 3855, 3864, 3863, 3791, 3792, 3801, 3800
1775, 3855, 3856, 3865, 3864, 3792, 3793, 3802, 3801
1776, 3856, 3857, 3866, 3865, 3793, 3794, 3803, 3802
1777, 3857, 3858, 3867, 3866, 3794, 3795, 3804, 3803
1778, 3858, 3859, 3868, 3867, 3795, 3796, 3805, 3804
1779, 3859, 3860, 3869, 3868, 3796, 3797, 3806, 3805
1780, 3860, 1823, 1824, 3869, 3797, 1816, 1817, 3806
1781, 1570, 3861, 3870, 1571, 1577, 3798, 3807, 1578
1782, 3861, 3862, 3871, 3870, 3798, 3799, 3808, 3807
1783, 3862, 3863, 3872, 3871, 3799, 3800, 3809, 3808
1784, 3863, 3864, 3873, 3872, 3800, 3801, 3810, 3809
1785, 3864, 3865, 3874, 3873, 3801, 3802, 3811, 3810
1786, 3865, 3866, 3875, 3874, 3802, 3803, 3812, 3811
1787, 3866, 3867, 3876, 3875, 3803, 3804, 3813, 3812
1788, 3867, 3868, 3877, 3876, 3804, 3805, 3814, 3813
1789, 3868, 3869, 3878, 3877, 3805, 3806, 3815, 3814
1790, 3869, 1824, 1825, 3878, 3806, 1817, 1818, 3815
1791, 1571, 3870, 3879, 1572, 1578, 3807, 3816, 1579
1792, 3870, 3871, 3880, 3879, 3807, 3808, 3817, 3816
1793, 3871, 3872, 3881, 3880, 3808, 3809, 3818, 3817
1794, 3872, 3873, 3882, 3881, 3809, 3810, 3819, 3818
1795, 3873, 3874, 3883, 3882, 3810, 3811, 3820, 3819
1796, 3874, 3875, 3884, 3883, 3811, 3812, 3821, 3820
1797, 3875, 3876, 3885, 3884, 3812, 3813, 3822, 3821
1798, 3876, 3877, 3886, 3885, 3813, 3814, 3823, 3822
1799, 3877, 3878, 3887, 3886, 3814, 3815, 3824, 3823
1800, 3878, 1825, 1826, 3887, 3815, 1818, 1819, 3824
1801, 1572, 3879, 3888, 1573, 1579, 3816, 3825, 1580
1802, 3879, 3880, 3889, 3888, 3816, 3817, 3826, 3825
1803, 3880, 3881, 3890, 3889, 3817, 3818, 3827, 3826
1804, 3881, 3882, 3891, 3890, 3818, 3819, 3828, 3827
1805, 3882, 3883, 3892, 3891, 3819, 3820, 3829, 3828
1806, 3883, 3884, 3893, 3892, 3820, 3821, 3830, 3829
1807, 3884, 3885, 3894, 3893, 3821, 3822, 3831, 3830
1808, 3885, 3886, 3895, 3894, 3822, 3823, 3832, 3831
1809, 3886, 3887, 3896, 3895, 3823, 3824, 3833, 3832
1810, 3887, 1826, 1827, 3896, 3824, 1819, 1820, 3833
1811, 1573, 3888, 3897, 1574, 1580, 3825, 3834, 1581
1812, 3888, 3889, 3898, 3897, 3825, 3826, 3835, 3834
1813, 3889, 3890, 3899, 3898, 3826, 3827, 3836, 3835
1814, 3890, 3891, 3900, 3899, 3827, 3828, 3837, 3836
1815, 3891, 3892, 3901, 3900, 3828, 3829, 3838, 3837
1816, 3892, 3893, 3902, 3901, 3829, 3830, 3839, 3838
1817, 3893, 3894, 3903, 3902, 3830, 3831, 3840, 3839
1818, 3894, 3895, 3904, 3903, 3831, 3832, 3841, 3840
1819, 3895, 3896, 3905, 3904, 3832, 3833, 3842, 3841
1820, 3896, 1827, 1828, 3905, 3833, 1820, 1821, 3842
1821, 1574, 3897, 3906, 1575, 1581, 3834, 3843, 1582
1822, 3897, 3898, 3907, 3906, 3834, 3835, 3844, 3843
1823, 3898, 3899, 3908, 3907, 3835, 3836, 3845, 3844
1824, 3899, 3900, 3909, 3908, 3836, 3837, 3846, 3845
1825, 3900, 3901, 3910, 3909, 3837, 3838, 3847, 3846
1826, 3901, 3902, 3911, 3910, 3838, 3839, 3848, 3847
1827, 3902, 3903, 3912, 3911, 3839, 3840, 3849, 3848
1828, 3903, 3904, 3913, 3912, 3840, 3841, 3850, 3849
1829, 3904, 3905, 3914, 3913, 3841, 3842, 3851, 3850
1830, 3905, 1828, 1829, 3914, 3842, 1821, 1822, 3851
1831, 1575, 3906, 1341,  294, 1582, 3843, 1350,  293
1832, 3906, 3907, 1342, 1341, 3843, 3844, 1351, 1350
1833, 3907, 3908, 1343, 1342, 3844, 3845, 1352, 1351
1834, 3908, 3909, 1344, 1343, 3845, 3846, 1353, 1352
1835, 3909, 3910, 1345, 1344, 3846, 3847, 1354, 1353
1836, 3910, 3911, 1346, 1345, 3847, 3848, 1355, 1354
1837, 3911, 3912, 1347, 1346, 3848, 3849, 1356, 1355
1838, 3912, 3913, 1348, 1347, 3849, 3850, 1357, 1356
1839, 3913, 3914, 1349, 1348, 3850, 3851, 1358, 1357
1840, 3914, 1829,  289, 1349, 3851, 1822,  290, 1358
1841,   28,  417, 1746,  343,  347, 1848, 3852, 1569
1842,  417,  416, 1747, 1746, 1848, 1849, 3853, 3852
1843,  416,  415, 1748, 1747, 1849, 1850, 3854, 3853
1844,  415,  414, 1749, 1748, 1850, 1851, 3855, 3854
1845,  414,  413, 1750, 1749, 1851, 1852, 3856, 3855
1846,  413,  412, 1751, 1750, 1852, 1853, 3857, 3856
1847,  412,  411, 1752, 1751, 1853, 1854, 3858, 3857
1848,  411,  410, 1753, 1752, 1854, 1855, 3859, 3858
1849,  410,  409, 1754, 1753, 1855, 1856, 3860, 3859
1850,  409,   34,  424, 1754, 1856,  427, 1823, 3860
1851,  343, 1746, 1755,  342, 1569, 3852, 3861, 1570
1852, 1746, 1747, 1756, 1755, 3852, 3853, 3862, 3861
1853, 1747, 1748, 1757, 1756, 3853, 3854, 3863, 3862
1854, 1748, 1749, 1758, 1757, 3854, 3855, 3864, 3863
1855, 1749, 1750, 1759, 1758, 3855, 3856, 3865, 3864
1856, 1750, 1751, 1760, 1759, 3856, 3857, 3866, 3865
1857, 1751, 1752, 1761, 1760, 3857, 3858, 3867, 3866
1858, 1752, 1753, 1762, 1761, 3858, 3859, 3868, 3867
1859, 1753, 1754, 1763, 1762, 3859, 3860, 3869, 3868
1860, 1754,  424,  423, 1763, 3860, 1823, 1824, 3869
1861,  342, 1755, 1764,  341, 1570, 3861, 3870, 1571
1862, 1755, 1756, 1765, 1764, 3861, 3862, 3871, 3870
1863, 1756, 1757, 1766, 1765, 3862, 3863, 3872, 3871
1864, 1757, 1758, 1767, 1766, 3863, 3864, 3873, 3872
1865, 1758, 1759, 1768, 1767, 3864, 3865, 3874, 3873
1866, 1759, 1760, 1769, 1768, 3865, 3866, 3875, 3874
1867, 1760, 1761, 1770, 1769, 3866, 3867, 3876, 3875
1868, 1761, 1762, 1771, 1770, 3867, 3868, 3877, 3876
1869, 1762, 1763, 1772, 1771, 3868, 3869, 3878, 3877
1870, 1763,  423,  422, 1772, 3869, 1824, 1825, 3878
1871,  341, 1764, 1773,  340, 1571, 3870, 3879, 1572
1872, 1764, 1765, 1774, 1773, 3870, 3871, 3880, 3879
1873, 1765, 1766, 1775, 1774, 3871, 3872, 3881, 3880
1874, 1766, 1767, 1776, 1775, 3872, 3873, 3882, 3881
1875, 1767, 1768, 1777, 1776, 3873, 3874, 3883, 3882
1876, 1768, 1769, 1778, 1777, 3874, 3875, 3884, 3883
1877, 1769, 1770, 1779, 1778, 3875, 3876, 3885, 3884
1878, 1770, 1771, 1780, 1779, 3876, 3877, 3886, 3885
1879, 1771, 1772, 1781, 1780, 3877, 3878, 3887, 3886
1880, 1772,  422,  421, 1781, 3878, 1825, 1826, 3887
1881,  340, 1773, 1782,  339, 1572, 3879, 3888, 1573
1882, 1773, 1774, 1783, 1782, 3879, 3880, 3889, 3888
1883, 1774, 1775, 1784, 1783, 3880, 3881, 3890, 3889
1884, 1775, 1776, 1785, 1784, 3881, 3882, 3891, 3890
1885, 1776, 1777, 1786, 1785, 3882, 3883, 3892, 3891
1886, 1777, 1778, 1787, 1786, 3883, 3884, 3893, 3892
1887, 1778, 1779, 1788, 1787, 3884, 3885, 3894, 3893
1888, 1779, 1780, 1789, 1788, 3885, 3886, 3895, 3894
1889, 1780, 1781, 1790, 1789, 3886, 3887, 3896, 3895
1890, 1781,  421,  420, 1790, 3887, 1826, 1827, 3896
1891,  339, 1782, 1791,  338, 1573, 3888, 3897, 1574
1892, 1782, 1783, 1792, 1791, 3888, 3889, 3898, 3897
1893, 1783, 1784, 1793, 1792, 3889, 3890, 3899, 3898
1894, 1784, 1785, 1794, 1793, 3890, 3891, 3900, 3899
1895, 1785, 1786, 1795, 1794, 3891, 3892, 3901, 3900
1896, 1786, 1787, 1796, 1795, 3892, 3893, 3902, 3901
1897, 1787, 1788, 1797, 1796, 3893, 3894, 3903, 3902
1898, 1788, 1789, 1798, 1797, 3894, 3895, 3904, 3903
1899, 1789, 1790, 1799, 1798, 3895, 3896, 3905, 3904
1900, 1790,  420,  419, 1799, 3896, 1827, 1828, 3905
1901,  338, 1791, 1800,  337, 1574, 3897, 3906, 1575
1902, 1791, 1792, 1801, 1800, 3897, 3898, 3907, 3906
1903, 1792, 1793, 1802, 1801, 3898, 3899, 3908, 3907
1904, 1793, 1794, 1803, 1802, 3899, 3900, 3909, 3908
1905, 1794, 1795, 1804, 1803, 3900, 3901, 3910, 3909
1906, 1795, 1796, 1805, 1804, 3901, 3902, 3911, 3910
1907, 1796, 1797, 1806, 1805, 3902, 3903, 3912, 3911
1908, 1797, 1798, 1807, 1806, 3903, 3904, 3913, 3912
1909, 1798, 1799, 1808, 1807, 3904, 3905, 3914, 3913
1910, 1799,  419,  418, 1808, 3905, 1828, 1829, 3914
1911,  337, 1800,  256,   17, 1575, 3906, 1341,  294
1912, 1800, 1801,  255,  256, 3906, 3907, 1342, 1341
1913, 1801, 1802,  254,  255, 3907, 3908, 1343, 1342
1914, 1802, 1803,  253,  254, 3908, 3909, 1344, 1343
1915, 1803, 1804,  252,  253, 3909, 3910, 1345, 1344
1916, 1804, 1805,  251,  252, 3910, 3911, 1346, 1345
1917, 1805, 1806,  250,  251, 3911, 3912, 1347, 1346
1918, 1806, 1807,  249,  250, 3912, 3913, 1348, 1347
1919, 1807, 1808,  248,  249, 3913, 3914, 1349, 1348
1920, 1808,  418,   20,  248, 3914, 1829,  289, 1349
1921,   15,  350, 1661,  370,  458, 2018, 3915, 1878
1922,  350,  351, 1654, 1661, 2018, 2019, 3916, 3915
1923,  351,  352, 1647, 1654, 2019, 2020, 3917, 3916
1924,  352,   27,  359, 1647, 2020,  487, 1948, 3917
1925,  370, 1661, 1660,  371, 1878, 3915, 3918, 1879
1926, 1661, 1654, 1653, 1660, 3915, 3916, 3919, 3918
1927, 1654, 1647, 1646, 1653, 3916, 3917, 3920, 3919
1928, 1647,  359,  358, 1646, 3917, 1948, 1949, 3920
1929,  371, 1660, 1659,  372, 1879, 3918, 3921, 1880
1930, 1660, 1653, 1652, 1659, 3918, 3919, 3922, 3921
1931, 1653, 1646, 1645, 1652, 3919, 3920, 3923, 3922
1932, 1646,  358,  357, 1645, 3920, 1949, 1950, 3923
1933,  372, 1659, 1658,  373, 1880, 3921, 3924, 1881
1934, 1659, 1652, 1651, 1658, 3921, 3922, 3925, 3924
1935, 1652, 1645, 1644, 1651, 3922, 3923, 3926, 3925
1936, 1645,  357,  356, 1644, 3923, 1950, 1951, 3926
1937,  373, 1658, 1657,  374, 1881, 3924, 3927, 1882
1938, 1658, 1651, 1650, 1657, 3924, 3925, 3928, 3927
1939, 1651, 1644, 1643, 1650, 3925, 3926, 3929, 3928
1940, 1644,  356,  355, 1643, 3926, 1951, 1952, 3929
1941,  374, 1657, 1656,  375, 1882, 3927, 3930, 1883
1942, 1657, 1650, 1649, 1656, 3927, 3928, 3931, 3930
1943, 1650, 1643, 1642, 1649, 3928, 3929, 3932, 3931
1944, 1643,  355,  354, 1642, 3929, 1952, 1953, 3932
1945,  375, 1656, 1655,  376, 1883, 3930, 3933, 1884
1946, 1656, 1649, 1648, 1655, 3930, 3931, 3934, 3933
1947, 1649, 1642, 1641, 1648, 3931, 3932, 3935, 3934
1948, 1642,  354,  353, 1641, 3932, 1953, 1954, 3935
1949,  376, 1655,  390,   32, 1884, 3933, 2048,  457
1950, 1655, 1648,  391,  390, 3933, 3934, 2049, 2048
1951, 1648, 1641,  392,  391, 3934, 3935, 2050, 2049
1952, 1641,  353,   29,  392, 3935, 1954,  468, 2050
1953,  458, 2018, 3915, 1878,  459, 2021, 3936, 1885
1954, 2018, 2019, 3916, 3915, 2021, 2022, 3937, 3936
1955, 2019, 2020, 3917, 3916, 2022, 2023, 3938, 3937
1956, 2020,  487, 1948, 3917, 2023,  486, 1955, 3938
1957, 1878, 3915, 3918, 1879, 1885, 3936, 3939, 1886
1958, 3915, 3916, 3919, 3918, 3936, 3937, 3940, 3939
1959, 3916, 3917, 3920, 3919, 3937, 3938, 3941, 3940
1960, 3917, 1948, 1949, 3920, 3938, 1955, 1956, 3941
1961, 1879, 3918, 3921, 1880, 1886, 3939, 3942, 1887
1962, 3918, 3919, 3922, 3921, 3939, 3940, 3943, 3942
1963, 3919, 3920, 3923, 3922, 3940, 3941, 3944, 3943
1964, 3920, 1949, 1950, 3923, 3941, 1956, 1957, 3944
1965, 1880, 3921, 3924, 1881, 1887, 3942, 3945, 1888
1966, 3921, 3922, 3925, 3924, 3942, 3943, 3946, 3945
1967, 3922, 3923, 3926, 3925, 3943, 3944, 3947, 3946
1968, 3923, 1950, 1951, 3926, 3944, 1957, 1958, 3947
1969, 1881, 3924, 3927, 1882, 1888, 3945, 3948, 1889
1970, 3924, 3925, 3928, 3927, 3945, 3946, 3949, 3948
1971, 3925, 3926, 3929, 3928, 3946, 3947, 3950, 3949
1972, 3926, 1951, 1952, 3929, 3947, 1958, 1959, 3950
1973, 1882, 3927, 3930, 1883, 1889, 3948, 3951, 1890
1974, 3927, 3928, 3931, 3930, 3948, 3949, 3952, 3951
1975, 3928, 3929, 3932, 3931, 3949, 3950, 3953, 3952
1976, 3929, 1952, 1953, 3932, 3950, 1959, 1960, 3953
1977, 1883, 3930, 3933, 1884, 1890, 3951, 3954, 1891
1978, 3930, 3931, 3934, 3933, 3951, 3952, 3955, 3954
1979, 3931, 3932, 3935, 3934, 3952, 3953, 3956, 3955
1980, 3932, 1953, 1954, 3935, 3953, 1960, 1961, 3956
1981, 1884, 3933, 2048,  457, 1891, 3954, 2051,  456
1982, 3933, 3934, 2049, 2048, 3954, 3955, 2052, 2051
1983, 3934, 3935, 2050, 2049, 3955, 3956, 2053, 2052
1984, 3935, 1954,  468, 2050, 3956, 1961,  469, 2053
1985,  459, 2021, 3936, 1885,  460, 2024, 3957, 1892
1986, 2021, 2022, 3937, 3936, 2024, 2025, 3958, 3957
1987, 2022, 2023, 3938, 3937, 2025, 2026, 3959, 3958
1988, 2023,  486, 1955, 3938, 2026,  485, 1962, 3959
1989, 1885, 3936, 3939, 1886, 1892, 3957, 3960, 1893
1990, 3936, 3937, 3940, 3939, 3957, 3958, 3961, 3960
1991, 3937, 3938, 3941, 3940, 3958, 3959, 3962, 3961
1992, 3938, 1955, 1956, 3941, 3959, 1962, 1963, 3962
1993, 1886, 3939, 3942, 1887, 1893, 3960, 3963, 1894
1994, 3939, 3940, 3943, 3942, 3960, 3961, 3964, 3963
1995, 3940, 3941, 3944, 3943, 3961, 3962, 3965, 3964
1996, 3941, 1956, 1957, 3944, 3962, 1963, 1964, 3965
1997, 1887, 3942, 3945, 1888, 1894, 3963, 3966, 1895
1998, 3942, 3943, 3946, 3945, 3963, 3964, 3967, 3966
1999, 3943, 3944, 3947, 3946, 3964, 3965, 3968, 3967
2000, 3944, 1957, 1958, 3947, 3965, 1964, 1965, 3968
2001, 1888, 3945, 3948, 1889, 1895, 3966, 3969, 1896
2002, 3945, 3946, 3949, 3948, 3966, 3967, 3970, 3969
2003, 3946, 3947, 3950, 3949, 3967, 3968, 3971, 3970
2004, 3947, 1958, 1959, 3950, 3968, 1965, 1966, 3971
2005, 1889, 3948, 3951, 1890, 1896, 3969, 3972, 1897
2006, 3948, 3949, 3952, 3951, 3969, 3970, 3973, 3972
2007, 3949, 3950, 3953, 3952, 3970, 3971, 3974, 3973
2008, 3950, 1959, 1960, 3953, 3971, 1966, 1967, 3974
2009, 1890, 3951, 3954, 1891, 1897, 3972, 3975, 1898
2010, 3951, 3952, 3955, 3954, 3972, 3973, 3976, 3975
2011, 3952, 3953, 3956, 3955, 3973, 3974, 3977, 3976
2012, 3953, 1960, 1961, 3956, 3974, 1967, 1968, 3977
2013, 1891, 3954, 2051,  456, 1898, 3975, 2054,  455
2014, 3954, 3955, 2052, 2051, 3975, 3976, 2055, 2054
2015, 3955, 3956, 2053, 2052, 3976, 3977, 2056, 2055
2016, 3956, 1961,  469, 2053, 3977, 1968,  470, 2056
2017,  460, 2024, 3957, 1892,  461, 2027, 3978, 1899
2018, 2024, 2025, 3958, 3957, 2027, 2028, 3979, 3978
2019, 2025, 2026, 3959, 3958, 2028, 2029, 3980, 3979
2020, 2026,  485, 1962, 3959, 2029,  484, 1969, 3980
2021, 1892, 3957, 3960, 1893, 1899, 3978, 3981, 1900
2022, 3957, 3958, 3961, 3960, 3978, 3979, 3982, 3981
2023, 3958, 3959, 3962, 3961, 3979, 3980, 3983, 3982
2024, 3959, 1962, 1963, 3962, 3980, 1969, 1970, 3983
2025, 1893, 3960, 3963, 1894, 1900, 3981, 3984, 1901
2026, 3960, 3961, 3964, 3963, 3981, 3982, 3985, 3984
2027, 3961, 3962, 3965, 3964, 3982, 3983, 3986, 3985
2028, 3962, 1963, 1964, 3965, 3983, 1970, 1971, 3986
2029, 1894, 3963, 3966, 1895, 1901, 3984, 3987, 1902
2030, 3963, 3964, 3967, 3966, 3984, 3985, 3988, 3987
2031, 3964, 3965, 3968, 3967, 3985, 3986, 3989, 3988
2032, 3965, 1964, 1965, 3968, 3986, 1971, 1972, 3989
2033, 1895, 3966, 3969, 1896, 1902, 3987, 3990, 1903
2034, 3966, 3967, 3970, 3969, 3987, 3988, 3991, 3990
2035, 3967, 3968, 3971, 3970, 3988, 3989, 3992, 3991
2036, 3968, 1965, 1966, 3971, 3989, 1972, 1973, 3992
2037, 1896, 3969, 3972, 1897, 1903, 3990, 3993, 1904
2038, 3969, 3970, 3973, 3972, 3990, 3991, 3994, 3993
2039, 3970, 3971, 3974, 3973, 3991, 3992, 3995, 3994
2040, 3971, 1966, 1967, 3974, 3992, 1973, 1974, 3995
2041, 1897, 3972, 3975, 1898, 1904, 3993, 3996, 1905
2042, 3972, 3973, 3976, 3975, 3993, 3994, 3997, 3996
2043, 3973, 3974, 3977, 3976, 3994, 3995, 3998, 3997
2044, 3974, 1967, 1968, 3977, 3995, 1974, 1975, 3998
2045, 1898, 3975, 2054,  455, 1905, 3996, 2057,  454
2046, 3975, 3976, 2055, 2054, 3996, 3997, 2058, 2057
2047, 3976, 3977, 2056, 2055, 3997, 3998, 2059, 2058
2048, 3977, 1968,  470, 2056, 3998, 1975,  471, 2059
2049,  461, 2027, 3978, 1899,  462, 2030, 3999, 1906
2050, 2027, 2028, 3979, 3978, 2030, 2031, 4000, 3999
2051, 2028, 2029, 3980, 3979, 2031, 2032, 4001, 4000
2052, 2029,  484, 1969, 3980, 2032,  483, 1976, 4001
2053, 1899, 3978, 3981, 1900, 1906, 3999, 4002, 1907
2054, 3978, 3979, 3982, 3981, 3999, 4000, 4003, 4002
2055, 3979, 3980, 3983, 3982, 4000, 4001, 4004, 4003
2056, 3980, 1969, 1970, 3983, 4001, 1976, 1977, 4004
2057, 1900, 3981, 3984, 1901, 1907, 4002, 4005, 1908
2058, 3981, 3982, 3985, 3984, 4002, 4003, 4006, 4005
2059, 3982, 3983, 3986, 3985, 4003, 4004, 4007, 4006
2060, 3983, 1970, 1971, 3986, 4004, 1977, 1978, 4007
2061, 1901, 3984, 3987, 1902, 1908, 4005, 4008, 1909
2062, 3984, 3985, 3988, 3987, 4005, 4006, 4009, 4008
2063, 3985, 3986, 3989, 3988, 4006, 4007, 4010, 4009
2064, 3986, 1971, 1972, 3989, 4007, 1978, 1979, 4010
2065, 1902, 3987, 3990, 1903, 1909, 4008, 4011, 1910
2066, 3987, 3988, 3991, 3990, 4008, 4009, 4012, 4011
2067, 3988, 3989, 3992, 3991, 4009, 4010, 4013, 4012
2068, 3989, 1972, 1973, 3992, 4010, 1979, 1980, 4013
2069, 1903, 3990, 3993, 1904, 1910, 4011, 4014, 1911
2070, 3990, 3991, 3994, 3993, 4011, 4012, 4015, 4014
2071, 3991, 3992, 3995, 3994, 4012, 4013, 4016, 4015
2072, 3992, 1973, 1974, 3995, 4013, 1980, 1981, 4016
2073, 1904, 3993, 3996, 1905, 1911, 4014, 4017, 1912
2074, 3993, 3994, 3997, 3996, 4014, 4015, 4018, 4017
2075, 3994, 3995, 3998, 3997, 4015, 4016, 4019, 4018
2076, 3995, 1974, 1975, 3998, 4016, 1981, 1982, 4019
2077, 1905, 3996, 2057,  454, 1912, 4017, 2060,  453
2078, 3996, 3997, 2058, 2057, 4017, 4018, 2061, 2060
2079, 3997, 3998, 2059, 2058, 4018, 4019, 2062, 2061
2080, 3998, 1975,  471, 2059, 4019, 1982,  472, 2062
2081,  462, 2030, 3999, 1906,  463, 2033, 4020, 1913
2082, 2030, 2031, 4000, 3999, 2033, 2034, 4021, 4020
2083, 2031, 2032, 4001, 4000, 2034, 2035, 4022, 4021
2084, 2032,  483, 1976, 4001, 2035,  482, 1983, 4022
2085, 1906, 3999, 4002, 1907, 1913, 4020, 4023, 1914
2086, 3999, 4000, 4003, 4002, 4020, 4021, 4024, 4023
2087, 4000, 4001, 4004, 4003, 4021, 4022, 4025, 4024
2088, 4001, 1976, 1977, 4004, 4022, 1983, 1984, 4025
2089, 1907, 4002, 4005, 1908, 1914, 4023, 4026, 1915
2090, 4002, 4003, 4006, 4005, 4023, 4024, 4027, 4026
2091, 4003, 4004, 4007, 4006, 4024, 4025, 4028, 4027
2092, 4004, 1977, 1978, 4007, 4025, 1984, 1985, 4028
2093, 1908, 4005, 4008, 1909, 1915, 4026, 4029, 1916
2094, 4005, 4006, 4009, 4008, 4026, 4027, 4030, 4029
2095, 4006, 4007, 4010, 4009, 4027, 4028, 4031, 4030
2096, 4007, 1978, 1979, 4010, 4028, 1985, 1986, 4031
2097, 1909, 4008, 4011, 1910, 1916, 4029, 4032, 1917
2098, 4008, 4009, 4012, 4011, 4029, 4030, 4033, 4032
2099, 4009, 4010, 4013, 4012, 4030, 4031, 4034, 4033
2100, 4010, 1979, 1980, 4013, 4031, 1986, 1987, 4034
2101, 1910, 4011, 4014, 1911, 1917, 4032, 4035, 1918
2102, 4011, 4012, 4015, 4014, 4032, 4033, 4036, 4035
2103, 4012, 4013, 4016, 4015, 4033, 4034, 4037, 4036
2104, 4013, 1980, 1981, 4016, 4034, 1987, 1988, 4037
2105, 1911, 4014, 4017, 1912, 1918, 4035, 4038, 1919
2106, 4014, 4015, 4018, 4017, 4035, 4036, 4039, 4038
2107, 4015, 4016, 4019, 4018, 4036, 4037, 4040, 4039
2108, 4016, 1981, 1982, 4019, 4037, 1988, 1989, 4040
2109, 1912, 4017, 2060,  453, 1919, 4038, 2063,  452
2110, 4017, 4018, 2061, 2060, 4038, 4039, 2064, 2063
2111, 4018, 4019, 2062, 2061, 4039, 4040, 2065, 2064
2112, 4019, 1982,  472, 2062, 4040, 1989,  473, 2065
2113,  463, 2033, 4020, 1913,  464, 2036, 4041, 1920
2114, 2033, 2034, 4021, 4020, 2036, 2037, 4042, 4041
2115, 2034, 2035, 4022, 4021, 2037, 2038, 4043, 4042
2116, 2035,  482, 1983, 4022, 2038,  481, 1990, 4043
2117, 1913, 4020, 4023, 1914, 1920, 4041, 4044, 1921
2118, 4020, 4021, 4024, 4023, 4041, 4042, 4045, 4044
2119, 4021, 4022, 4025, 4024, 4042, 4043, 4046, 4045
2120, 4022, 1983, 1984, 4025, 4043, 1990, 1991, 4046
2121, 1914, 4023, 4026, 1915, 1921, 4044, 4047, 1922
2122, 4023, 4024, 4027, 4026, 4044, 4045, 4048, 4047
2123, 4024, 4025, 4028, 4027, 4045, 4046, 4049, 4048
2124, 4025, 1984, 1985, 4028, 4046, 1991, 1992, 4049
2125, 1915, 4026, 4029, 1916, 1922, 4047, 4050, 1923
2126, 4026, 4027, 4030, 4029, 4047, 4048, 4051, 4050
2127, 4027, 4028, 4031, 4030, 4048, 4049, 4052, 4051
2128, 4028, 1985, 1986, 4031, 4049, 1992, 1993, 4052
2129, 1916, 4029, 4032, 1917, 1923, 4050, 4053, 1924
2130, 4029, 4030, 4033, 4032, 4050, 4051, 4054, 4053
2131, 4030, 4031, 4034, 4033, 4051, 4052, 4055, 4054
2132, 4031, 1986, 1987, 4034, 4052, 1993, 1994, 4055
2133, 1917, 4032, 4035, 1918, 1924, 4053, 4056, 1925
2134, 4032, 4033, 4036, 4035, 4053, 4054, 4057, 4056
2135, 4033, 4034, 4037, 4036, 4054, 4055, 4058, 4057
2136, 4034, 1987, 1988, 4037, 4055, 1994, 1995, 4058
2137, 1918, 4035, 4038, 1919, 1925, 4056, 4059, 1926
2138, 4035, 4036, 4039, 4038, 4056, 4057, 4060, 4059
2139, 4036, 4037, 4040, 4039, 4057, 4058, 4061, 4060
2140, 4037, 1988, 1989, 4040, 4058, 1995, 1996, 4061
2141, 1919, 4038, 2063,  452, 1926, 4059, 2066,  451
2142, 4038, 4039, 2064, 2063, 4059, 4060, 2067, 2066
2143, 4039, 4040, 2065, 2064, 4060, 4061, 2068, 2067
2144, 4040, 1989,  473, 2065, 4061, 1996,  474, 2068
2145,  464, 2036, 4041, 1920,  465, 2039, 4062, 1927
2146, 2036, 2037, 4042, 4041, 2039, 2040, 4063, 4062
2147, 2037, 2038, 4043, 4042, 2040, 2041, 4064, 4063
2148, 2038,  481, 1990, 4043, 2041,  480, 1997, 4064
2149, 1920, 4041, 4044, 1921, 1927, 4062, 4065, 1928
2150, 4041, 4042, 4045, 4044, 4062, 4063, 4066, 4065
2151, 4042, 4043, 4046, 4045, 4063, 4064, 4067, 4066
2152, 4043, 1990, 1991, 4046, 4064, 1997, 1998, 4067
2153, 1921, 4044, 4047, 1922, 1928, 4065, 4068, 1929
2154, 4044, 4045, 4048, 4047, 4065, 4066, 4069, 4068
2155, 4045, 4046, 4049, 4048, 4066, 4067, 4070, 4069
2156, 4046, 1991, 1992, 4049, 4067, 1998, 1999, 4070
2157, 1922, 4047, 4050, 1923, 1929, 4068, 4071, 1930
2158, 4047, 4048, 4051, 4050, 4068, 4069, 4072, 4071
2159, 4048, 4049, 4052, 4051, 4069, 4070, 4073, 4072
2160, 4049, 1992, 1993, 4052, 4070, 1999, 2000, 4073
2161, 1923, 4050, 4053, 1924, 1930, 4071, 4074, 1931
2162, 4050, 4051, 4054, 4053, 4071, 4072, 4075, 4074
2163, 4051, 4052, 4055, 4054, 4072, 4073, 4076, 4075
2164, 4052, 1993, 1994, 4055, 4073, 2000, 2001, 4076
2165, 1924, 4053, 4056, 1925, 1931, 4074, 4077, 1932
2166, 4053, 4054, 4057, 4056, 4074, 4075, 4078, 4077
2167, 4054, 4055, 4058, 4057, 4075, 4076, 4079, 4078
2168, 4055, 1994, 1995, 4058, 4076, 2001, 2002, 4079
2169, 1925, 4056, 4059, 1926, 1932, 4077, 4080, 1933
2170, 4056, 4057, 4060, 4059, 4077, 4078, 4081, 4080
2171, 4057, 4058, 4061, 4060, 4078, 4079, 4082, 4081
2172, 4058, 1995, 1996, 4061, 4079, 2002, 2003, 4082
2173, 1926, 4059, 2066,  451, 1933, 4080, 2069,  450
2174, 4059, 4060, 2067, 2066, 4080, 4081, 2070, 2069
2175, 4060, 4061, 2068, 2067, 4081, 4082, 2071, 2070
2176, 4061, 1996,  474, 2068, 4082, 2003,  475, 2071
2177,  465, 2039, 4062, 1927,  466, 2042, 4083, 1934
2178, 2039, 2040, 4063, 4062, 2042, 2043, 4084, 4083
2179, 2040, 2041, 4064, 4063, 2043, 2044, 4085, 4084
2180, 2041,  480, 1997, 4064, 2044,  479, 2004, 4085
2181, 1927, 4062, 4065, 1928, 1934, 4083, 4086, 1935
2182, 4062, 4063, 4066, 4065, 4083, 4084, 4087, 4086
2183, 4063, 4064, 4067, 4066, 4084, 4085, 4088, 4087
2184, 4064, 1997, 1998, 4067, 4085, 2004, 2005, 4088
2185, 1928, 4065, 4068, 1929, 1935, 4086, 4089, 1936
2186, 4065, 4066, 4069, 4068, 4086, 4087, 4090, 4089
2187, 4066, 4067, 4070, 4069, 4087, 4088, 4091, 4090
2188, 4067, 1998, 1999, 4070, 4088, 2005, 2006, 4091
2189, 1929, 4068, 4071, 1930, 1936, 4089, 4092, 1937
2190, 4068, 4069, 4072, 4071, 4089, 4090, 4093, 4092
2191, 4069, 4070, 4073, 4072, 4090, 4091, 4094, 4093
2192, 4070, 1999, 2000, 4073, 4091, 2006, 2007, 4094
2193, 1930, 4071, 4074, 1931, 1937, 4092, 4095, 1938
2194, 4071, 4072, 4075, 4074, 4092, 4093, 4096, 4095
2195, 4072, 4073, 4076, 4075, 4093, 4094, 4097, 4096
2196, 4073, 2000, 2001, 4076, 4094, 2007, 2008, 4097
2197, 1931, 4074, 4077, 1932, 1938, 4095, 4098, 1939
2198, 4074, 4075, 4078, 4077, 4095, 4096, 4099, 4098
2199, 4075, 4076, 4079, 4078, 4096, 4097, 4100, 4099
2200, 4076, 2001, 2002, 4079, 4097, 2008, 2009, 4100
2201, 1932, 4077, 4080, 1933, 1939, 4098, 4101, 1940
2202, 4077, 4078, 4081, 4080, 4098, 4099, 4102, 4101
2203, 4078, 4079, 4082, 4081, 4099, 4100, 4103, 4102
2204, 4079, 2002, 2003, 4082, 4100, 2009, 2010, 4103
2205, 1933, 4080, 2069,  450, 1940, 4101, 2072,  449
2206, 4080, 4081, 2070, 2069, 4101, 4102, 2073, 2072
2207, 4081, 4082, 2071, 2070, 4102, 4103, 2074, 2073
2208, 4082, 2003,  475, 2071, 4103, 2010,  476, 2074
2209,  466, 2042, 4083, 1934,  467, 2045, 4104, 1941
2210, 2042, 2043, 4084, 4083, 2045, 2046, 4105, 4104
2211, 2043, 2044, 4085, 4084, 2046, 2047, 4106, 4105
2212, 2044,  479, 2004, 4085, 2047,  478, 2011, 4106
2213, 1934, 4083, 4086, 1935, 1941, 4104, 4107, 1942
2214, 4083, 4084, 4087, 4086, 4104, 4105, 4108, 4107
2215, 4084, 4085, 4088, 4087, 4105, 4106, 4109, 4108
2216, 4085, 2004, 2005, 4088, 4106, 2011, 2012, 4109
2217, 1935, 4086, 4089, 1936, 1942, 4107, 4110, 1943
2218, 4086, 4087, 4090, 4089, 4107, 4108, 4111, 4110
2219, 4087, 4088, 4091, 4090, 4108, 4109, 4112, 4111
2220, 4088, 2005, 2006, 4091, 4109, 2012, 2013, 4112
2221, 1936, 4089, 4092, 1937, 1943, 4110, 4113, 1944
2222, 4089, 4090, 4093, 4092, 4110, 4111, 4114, 4113
2223, 4090, 4091, 4094, 4093, 4111, 4112, 4115, 4114
2224, 4091, 2006, 2007, 4094, 4112, 2013, 2014, 4115
2225, 1937, 4092, 4095, 1938, 1944, 4113, 4116, 1945
2226, 4092, 4093, 4096, 4095, 4113, 4114, 4117, 4116
2227, 4093, 4094, 4097, 4096, 4114, 4115, 4118, 4117
2228, 4094, 2007, 2008, 4097, 4115, 2014, 2015, 4118
2229, 1938, 4095, 4098, 1939, 1945, 4116, 4119, 1946
2230, 4095, 4096, 4099, 4098, 4116, 4117, 4120, 4119
2231, 4096, 4097, 4100, 4099, 4117, 4118, 4121, 4120
2232, 4097, 2008, 2009, 4100, 4118, 2015, 2016, 4121
2233, 1939, 4098, 4101, 1940, 1946, 4119, 4122, 1947
2234, 4098, 4099, 4102, 4101, 4119, 4120, 4123, 4122
2235, 4099, 4100, 4103, 4102, 4120, 4121, 4124, 4123
2236, 4100, 2009, 2010, 4103, 4121, 2016, 2017, 4124
2237, 1940, 4101, 2072,  449, 1947, 4122, 2075,  448
2238, 4101, 4102, 2073, 2072, 4122, 4123, 2076, 2075
2239, 4102, 4103, 2074, 2073, 4123, 4124, 2077, 2076
2240, 4103, 2010,  476, 2074, 4124, 2017,  477, 2077
2241,  467, 2045, 4104, 1941,   35,  428, 1857,  447
2242, 2045, 2046, 4105, 4104,  428,  429, 1858, 1857
2243, 2046, 2047, 4106, 4105,  429,  430, 1859, 1858
2244, 2047,  478, 2011, 4106,  430,   36,  431, 1859
2245, 1941, 4104, 4107, 1942,  447, 1857, 1860,  446
2246, 4104, 4105, 4108, 4107, 1857, 1858, 1861, 1860
2247, 4105, 4106, 4109, 4108, 1858, 1859, 1862, 1861
2248, 4106, 2011, 2012, 4109, 1859,  431,  432, 1862
2249, 1942, 4107, 4110, 1943,  446, 1860, 1863,  445
2250, 4107, 4108, 4111, 4110, 1860, 1861, 1864, 1863
2251, 4108, 4109, 4112, 4111, 1861, 1862, 1865, 1864
2252, 4109, 2012, 2013, 4112, 1862,  432,  433, 1865
2253, 1943, 4110, 4113, 1944,  445, 1863, 1866,  444
2254, 4110, 4111, 4114, 4113, 1863, 1864, 1867, 1866
2255, 4111, 4112, 4115, 4114, 1864, 1865, 1868, 1867
2256, 4112, 2013, 2014, 4115, 1865,  433,  434, 1868
2257, 1944, 4113, 4116, 1945,  444, 1866, 1869,  443
2258, 4113, 4114, 4117, 4116, 1866, 1867, 1870, 1869
2259, 4114, 4115, 4118, 4117, 1867, 1868, 1871, 1870
2260, 4115, 2014, 2015, 4118, 1868,  434,  435, 1871
2261, 1945, 4116, 4119, 1946,  443, 1869, 1872,  442
2262, 4116, 4117, 4120, 4119, 1869, 1870, 1873, 1872
2263, 4117, 4118, 4121, 4120, 1870, 1871, 1874, 1873
2264, 4118, 2015, 2016, 4121, 1871,  435,  436, 1874
2265, 1946, 4119, 4122, 1947,  442, 1872, 1875,  441
2266, 4119, 4120, 4123, 4122, 1872, 1873, 1876, 1875
2267, 4120, 4121, 4124, 4123, 1873, 1874, 1877, 1876
2268, 4121, 2016, 2017, 4124, 1874,  436,  437, 1877
2269, 1947, 4122, 2075,  448,  441, 1875,  440,   38
2270, 4122, 4123, 2076, 2075, 1875, 1876,  439,  440
2271, 4123, 4124, 2077, 2076, 1876, 1877,  438,  439
2272, 4124, 2017,  477, 2077, 1877,  437,   37,  438
2273,  347, 1848, 4125, 1668,   28,  417, 2078,  360
2274, 1848, 1849, 4126, 4125,  417,  416, 2079, 2078
2275, 1849, 1850, 4127, 4126,  416,  415, 2080, 2079
2276, 1850, 1851, 4128, 4127,  415,  414, 2081, 2080
2277, 1851, 1852, 4129, 4128,  414,  413, 2082, 2081
2278, 1852, 1853, 4130, 4129,  413,  412, 2083, 2082
2279, 1853, 1854, 4131, 4130,  412,  411, 2084, 2083
2280, 1854, 1855, 4132, 4131,  411,  410, 2085, 2084
2281, 1855, 1856, 4133, 4132,  410,  409, 2086, 2085
2282, 1856,  427, 2204, 4133,  409,   34,  488, 2086
2283, 1668, 4125, 4134, 1667,  360, 2078, 2087,  361
2284, 4125, 4126, 4135, 4134, 2078, 2079, 2088, 2087
2285, 4126, 4127, 4136, 4135, 2079, 2080, 2089, 2088
2286, 4127, 4128, 4137, 4136, 2080, 2081, 2090, 2089
2287, 4128, 4129, 4138, 4137, 2081, 2082, 2091, 2090
2288, 4129, 4130, 4139, 4138, 2082, 2083, 2092, 2091
2289, 4130, 4131, 4140, 4139, 2083, 2084, 2093, 2092
2290, 4131, 4132, 4141, 4140, 2084, 2085, 2094, 2093
2291, 4132, 4133, 4142, 4141, 2085, 2086, 2095, 2094
2292, 4133, 2204, 2205, 4142, 2086,  488,  489, 2095
2293, 1667, 4134, 4143, 1666,  361, 2087, 2096,  362
2294, 4134, 4135, 4144, 4143, 2087, 2088, 2097, 2096
2295, 4135, 4136, 4145, 4144, 2088, 2089, 2098, 2097
2296, 4136, 4137, 4146, 4145, 2089, 2090, 2099, 2098
2297, 4137, 4138, 4147, 4146, 2090, 2091, 2100, 2099
2298, 4138, 4139, 4148, 4147, 2091, 2092, 2101, 2100
2299, 4139, 4140, 4149, 4148, 2092, 2093, 2102, 2101
2300, 4140, 4141, 4150, 4149, 2093, 2094, 2103, 2102
2301, 4141, 4142, 4151, 4150, 2094, 2095, 2104, 2103
2302, 4142, 2205, 2206, 4151, 2095,  489,  490, 2104
2303, 1666, 4143, 4152, 1665,  362, 2096, 2105,  363
2304, 4143, 4144, 4153, 4152, 2096, 2097, 2106, 2105
2305, 4144, 4145, 4154, 4153, 2097, 2098, 2107, 2106
2306, 4145, 4146, 4155, 4154, 2098, 2099, 2108, 2107
2307, 4146, 4147, 4156, 4155, 2099, 2100, 2109, 2108
2308, 4147, 4148, 4157, 4156, 2100, 2101, 2110, 2109
2309, 4148, 4149, 4158, 4157, 2101, 2102, 2111, 2110
2310, 4149, 4150, 4159, 4158, 2102, 2103, 2112, 2111
2311, 4150, 4151, 4160, 4159, 2103, 2104, 2113, 2112
2312, 4151, 2206, 2207, 4160, 2104,  490,  491, 2113
2313, 1665, 4152, 4161, 1664,  363, 2105, 2114,  364
2314, 4152, 4153, 4162, 4161, 2105, 2106, 2115, 2114
2315, 4153, 4154, 4163, 4162, 2106, 2107, 2116, 2115
2316, 4154, 4155, 4164, 4163, 2107, 2108, 2117, 2116
2317, 4155, 4156, 4165, 4164, 2108, 2109, 2118, 2117
2318, 4156, 4157, 4166, 4165, 2109, 2110, 2119, 2118
2319, 4157, 4158, 4167, 4166, 2110, 2111, 2120, 2119
2320, 4158, 4159, 4168, 4167, 2111, 2112, 2121, 2120
2321, 4159, 4160, 4169, 4168, 2112, 2113, 2122, 2121
2322, 4160, 2207, 2208, 4169, 2113,  491,  492, 2122
2323, 1664, 4161, 4170, 1663,  364, 2114, 2123,  365
2324, 4161, 4162, 4171, 4170, 2114, 2115, 2124, 2123
2325, 4162, 4163, 4172, 4171, 2115, 2116, 2125, 2124
2326, 4163, 4164, 4173, 4172, 2116, 2117, 2126, 2125
2327, 4164, 4165, 4174, 4173, 2117, 2118, 2127, 2126
2328, 4165, 4166, 4175, 4174, 2118, 2119, 2128, 2127
2329, 4166, 4167, 4176, 4175, 2119, 2120, 2129, 2128
2330, 4167, 4168, 4177, 4176, 2120, 2121, 2130, 2129
2331, 4168, 4169, 4178, 4177, 2121, 2122, 2131, 2130
2332, 4169, 2208, 2209, 4178, 2122,  492,  493, 2131
2333, 1663, 4170, 4179, 1662,  365, 2123, 2132,  366
2334, 4170, 4171, 4180, 4179, 2123, 2124, 2133, 2132
2335, 4171, 4172, 4181, 4180, 2124, 2125, 2134, 2133
2336, 4172, 4173, 4182, 4181, 2125, 2126, 2135, 2134
2337, 4173, 4174, 4183, 4182, 2126, 2127, 2136, 2135
2338, 4174, 4175, 4184, 4183, 2127, 2128, 2137, 2136
2339, 4175, 4176, 4185, 4184, 2128, 2129, 2138, 2137
2340, 4176, 4177, 4186, 4185, 2129, 2130, 2139, 2138
2341, 4177, 4178, 4187, 4186, 2130, 2131, 2140, 2139
2342, 4178, 2209, 2210, 4187, 2131,  493,  494, 2140
2343, 1662, 4179, 2225,  387,  366, 2132,  503,   30
2344, 4179, 4180, 2226, 2225, 2132, 2133,  502,  503
2345, 4180, 4181, 2227, 2226, 2133, 2134,  501,  502
2346, 4181, 4182, 2228, 2227, 2134, 2135,  500,  501
2347, 4182, 4183, 2229, 2228, 2135, 2136,  499,  500
2348, 4183, 4184, 2230, 2229, 2136, 2137,  498,  499
2349, 4184, 4185, 2231, 2230, 2137, 2138,  497,  498
2350, 4185, 4186, 2232, 2231, 2138, 2139,  496,  497
2351, 4186, 4187, 2233, 2232, 2139, 2140,  495,  496
2352, 4187, 2210,  522, 2233, 2140,  494,   39,  495
2353,  348, 1839, 4188, 1675,  347, 1848, 4125, 1668
2354, 1839, 1840, 4189, 4188, 1848, 1849, 4126, 4125
2355, 1840, 1841, 4190, 4189, 1849, 1850, 4127, 4126
2356, 1841, 1842, 4191, 4190, 1850, 1851, 4128, 4127
2357, 1842, 1843, 4192, 4191, 1851, 1852, 4129, 4128
2358, 1843, 1844, 4193, 4192, 1852, 1853, 4130, 4129
2359, 1844, 1845, 4194, 4193, 1853, 1854, 4131, 4130
2360, 1845, 1846, 4195, 4194, 1854, 1855, 4132, 4131
2361, 1846, 1847, 4196, 4195, 1855, 1856, 4133, 4132
2362, 1847,  426, 2211, 4196, 1856,  427, 2204, 4133
2363, 1675, 4188, 4197, 1674, 1668, 4125, 4134, 1667
2364, 4188, 4189, 4198, 4197, 4125, 4126, 4135, 4134
2365, 4189, 4190, 4199, 4198, 4126, 4127, 4136, 4135
2366, 4190, 4191, 4200, 4199, 4127, 4128, 4137, 4136
2367, 4191, 4192, 4201, 4200, 4128, 4129, 4138, 4137
2368, 4192, 4193, 4202, 4201, 4129, 4130, 4139, 4138
2369, 4193, 4194, 4203, 4202, 4130, 4131, 4140, 4139
2370, 4194, 4195, 4204, 4203, 4131, 4132, 4141, 4140
2371, 4195, 4196, 4205, 4204, 4132, 4133, 4142, 4141
2372, 4196, 2211, 2212, 4205, 4133, 2204, 2205, 4142
2373, 1674, 4197, 4206, 1673, 1667, 4134, 4143, 1666
2374, 4197, 4198, 4207, 4206, 4134, 4135, 4144, 4143
2375, 4198, 4199, 4208, 4207, 4135, 4136, 4145, 4144
2376, 4199, 4200, 4209, 4208, 4136, 4137, 4146, 4145
2377, 4200, 4201, 4210, 4209, 4137, 4138, 4147, 4146
2378, 4201, 4202, 4211, 4210, 4138, 4139, 4148, 4147
2379, 4202, 4203, 4212, 4211, 4139, 4140, 4149, 4148
2380, 4203, 4204, 4213, 4212, 4140, 4141, 4150, 4149
2381, 4204, 4205, 4214, 4213, 4141, 4142, 4151, 4150
2382, 4205, 2212, 2213, 4214, 4142, 2205, 2206, 4151
2383, 1673, 4206, 4215, 1672, 1666, 4143, 4152, 1665
2384, 4206, 4207, 4216, 4215, 4143, 4144, 4153, 4152
2385, 4207, 4208, 4217, 4216, 4144, 4145, 4154, 4153
2386, 4208, 4209, 4218, 4217, 4145, 4146, 4155, 4154
2387, 4209, 4210, 4219, 4218, 4146, 4147, 4156, 4155
2388, 4210, 4211, 4220, 4219, 4147, 4148, 4157, 4156
2389, 4211, 4212, 4221, 4220, 4148, 4149, 4158, 4157
2390, 4212, 4213, 4222, 4221, 4149, 4150, 4159, 4158
2391, 4213, 4214, 4223, 4222, 4150, 4151, 4160, 4159
2392, 4214, 2213, 2214, 4223, 4151, 2206, 2207, 4160
2393, 1672, 4215, 4224, 1671, 1665, 4152, 4161, 1664
2394, 4215, 4216, 4225, 4224, 4152, 4153, 4162, 4161
2395, 4216, 4217, 4226, 4225, 4153, 4154, 4163, 4162
2396, 4217, 4218, 4227, 4226, 4154, 4155, 4164, 4163
2397, 4218, 4219, 4228, 4227, 4155, 4156, 4165, 4164
2398, 4219, 4220, 4229, 4228, 4156, 4157, 4166, 4165
2399, 4220, 4221, 4230, 4229, 4157, 4158, 4167, 4166
2400, 4221, 4222, 4231, 4230, 4158, 4159, 4168, 4167
2401, 4222, 4223, 4232, 4231, 4159, 4160, 4169, 4168
2402, 4223, 2214, 2215, 4232, 4160, 2207, 2208, 4169
2403, 1671, 4224, 4233, 1670, 1664, 4161, 4170, 1663
2404, 4224, 4225, 4234, 4233, 4161, 4162, 4171, 4170
2405, 4225, 4226, 4235, 4234, 4162, 4163, 4172, 4171
2406, 4226, 4227, 4236, 4235, 4163, 4164, 4173, 4172
2407, 4227, 4228, 4237, 4236, 4164, 4165, 4174, 4173
2408, 4228, 4229, 4238, 4237, 4165, 4166, 4175, 4174
2409, 4229, 4230, 4239, 4238, 4166, 4167, 4176, 4175
2410, 4230, 4231, 4240, 4239, 4167, 4168, 4177, 4176
2411, 4231, 4232, 4241, 4240, 4168, 4169, 4178, 4177
2412, 4232, 2215, 2216, 4241, 4169, 2208, 2209, 4178
2413, 1670, 4233, 4242, 1669, 1663, 4170, 4179, 1662
2414, 4233, 4234, 4243, 4242, 4170, 4171, 4180, 4179
2415, 4234, 4235, 4244, 4243, 4171, 4172, 4181, 4180
2416, 4235, 4236, 4245, 4244, 4172, 4173, 4182, 4181
2417, 4236, 4237, 4246, 4245, 4173, 4174, 4183, 4182
2418, 4237, 4238, 4247, 4246, 4174, 4175, 4184, 4183
2419, 4238, 4239, 4248, 4247, 4175, 4176, 4185, 4184
2420, 4239, 4240, 4249, 4248, 4176, 4177, 4186, 4185
2421, 4240, 4241, 4250, 4249, 4177, 4178, 4187, 4186
2422, 4241, 2216, 2217, 4250, 4178, 2209, 2210, 4187
2423, 1669, 4242, 2234,  388, 1662, 4179, 2225,  387
2424, 4242, 4243, 2235, 2234, 4179, 4180, 2226, 2225
2425, 4243, 4244, 2236, 2235, 4180, 4181, 2227, 2226
2426, 4244, 4245, 2237, 2236, 4181, 4182, 2228, 2227
2427, 4245, 4246, 2238, 2237, 4182, 4183, 2229, 2228
2428, 4246, 4247, 2239, 2238, 4183, 4184, 2230, 2229
2429, 4247, 4248, 2240, 2239, 4184, 4185, 2231, 2230
2430, 4248, 4249, 2241, 2240, 4185, 4186, 2232, 2231
2431, 4249, 4250, 2242, 2241, 4186, 4187, 2233, 2232
2432, 4250, 2217,  521, 2242, 4187, 2210,  522, 2233
2433,  349, 1830, 4251, 1682,  348, 1839, 4188, 1675
2434, 1830, 1831, 4252, 4251, 1839, 1840, 4189, 4188
2435, 1831, 1832, 4253, 4252, 1840, 1841, 4190, 4189
2436, 1832, 1833, 4254, 4253, 1841, 1842, 4191, 4190
2437, 1833, 1834, 4255, 4254, 1842, 1843, 4192, 4191
2438, 1834, 1835, 4256, 4255, 1843, 1844, 4193, 4192
2439, 1835, 1836, 4257, 4256, 1844, 1845, 4194, 4193
2440, 1836, 1837, 4258, 4257, 1845, 1846, 4195, 4194
2441, 1837, 1838, 4259, 4258, 1846, 1847, 4196, 4195
2442, 1838,  425, 2218, 4259, 1847,  426, 2211, 4196
2443, 1682, 4251, 4260, 1681, 1675, 4188, 4197, 1674
2444, 4251, 4252, 4261, 4260, 4188, 4189, 4198, 4197
2445, 4252, 4253, 4262, 4261, 4189, 4190, 4199, 4198
2446, 4253, 4254, 4263, 4262, 4190, 4191, 4200, 4199
2447, 4254, 4255, 4264, 4263, 4191, 4192, 4201, 4200
2448, 4255, 4256, 4265, 4264, 4192, 4193, 4202, 4201
2449, 4256, 4257, 4266, 4265, 4193, 4194, 4203, 4202
2450, 4257, 4258, 4267, 4266, 4194, 4195, 4204, 4203
2451, 4258, 4259, 4268, 4267, 4195, 4196, 4205, 4204
2452, 4259, 2218, 2219, 4268, 4196, 2211, 2212, 4205
2453, 1681, 4260, 4269, 1680, 1674, 4197, 4206, 1673
2454, 4260, 4261, 4270, 4269, 4197, 4198, 4207, 4206
2455, 4261, 4262, 4271, 4270, 4198, 4199, 4208, 4207
2456, 4262, 4263, 4272, 4271, 4199, 4200, 4209, 4208
2457, 4263, 4264, 4273, 4272, 4200, 4201, 4210, 4209
2458, 4264, 4265, 4274, 4273, 4201, 4202, 4211, 4210
2459, 4265, 4266, 4275, 4274, 4202, 4203, 4212, 4211
2460, 4266, 4267, 4276, 4275, 4203, 4204, 4213, 4212
2461, 4267, 4268, 4277, 4276, 4204, 4205, 4214, 4213
2462, 4268, 2219, 2220, 4277, 4205, 2212, 2213, 4214
2463, 1680, 4269, 4278, 1679, 1673, 4206, 4215, 1672
2464, 4269, 4270, 4279, 4278, 4206, 4207, 4216, 4215
2465, 4270, 4271, 4280, 4279, 4207, 4208, 4217, 4216
2466, 4271, 4272, 4281, 4280, 4208, 4209, 4218, 4217
2467, 4272, 4273, 4282, 4281, 4209, 4210, 4219, 4218
2468, 4273, 4274, 4283, 4282, 4210, 4211, 4220, 4219
2469, 4274, 4275, 4284, 4283, 4211, 4212, 4221, 4220
2470, 4275, 4276, 4285, 4284, 4212, 4213, 4222, 4221
2471, 4276, 4277, 4286, 4285, 4213, 4214, 4223, 4222
2472, 4277, 2220, 2221, 4286, 4214, 2213, 2214, 4223
2473, 1679, 4278, 4287, 1678, 1672, 4215, 4224, 1671
2474, 4278, 4279, 4288, 4287, 4215, 4216, 4225, 4224
2475, 4279, 4280, 4289, 4288, 4216, 4217, 4226, 4225
2476, 4280, 4281, 4290, 4289, 4217, 4218, 4227, 4226
2477, 4281, 4282, 4291, 4290, 4218, 4219, 4228, 4227
2478, 4282, 4283, 4292, 4291, 4219, 4220, 4229, 4228
2479, 4283, 4284, 4293, 4292, 4220, 4221, 4230, 4229
2480, 4284, 4285, 4294, 4293, 4221, 4222, 4231, 4230
2481, 4285, 4286, 4295, 4294, 4222, 4223, 4232, 4231
2482, 4286, 2221, 2222, 4295, 4223, 2214, 2215, 4232
2483, 1678, 4287, 4296, 1677, 1671, 4224, 4233, 1670
2484, 4287, 4288, 4297, 4296, 4224, 4225, 4234, 4233
2485, 4288, 4289, 4298, 4297, 4225, 4226, 4235, 4234
2486, 4289, 4290, 4299, 4298, 4226, 4227, 4236, 4235
2487, 4290, 4291, 4300, 4299, 4227, 4228, 4237, 4236
2488, 4291, 4292, 4301, 4300, 4228, 4229, 4238, 4237
2489, 4292, 4293, 4302, 4301, 4229, 4230, 4239, 4238
2490, 4293, 4294, 4303, 4302, 4230, 4231, 4240, 4239
2491, 4294, 4295, 4304, 4303, 4231, 4232, 4241, 4240
2492, 4295, 2222, 2223, 4304, 4232, 2215, 2216, 4241
2493, 1677, 4296, 4305, 1676, 1670, 4233, 4242, 1669
2494, 4296, 4297, 4306, 4305, 4233, 4234, 4243, 4242
2495, 4297, 4298, 4307, 4306, 4234, 4235, 4244, 4243
2496, 4298, 4299, 4308, 4307, 4235, 4236, 4245, 4244
2497, 4299, 4300, 4309, 4308, 4236, 4237, 4246, 4245
2498, 4300, 4301, 4310, 4309, 4237, 4238, 4247, 4246
2499, 4301, 4302, 4311, 4310, 4238, 4239, 4248, 4247
2500, 4302, 4303, 4312, 4311, 4239, 4240, 4249, 4248
2501, 4303, 4304, 4313, 4312, 4240, 4241, 4250, 4249
2502, 4304, 2223, 2224, 4313, 4241, 2216, 2217, 4250
2503, 1676, 4305, 2243,  389, 1669, 4242, 2234,  388
2504, 4305, 4306, 2244, 2243, 4242, 4243, 2235, 2234
2505, 4306, 4307, 2245, 2244, 4243, 4244, 2236, 2235
2506, 4307, 4308, 2246, 2245, 4244, 4245, 2237, 2236
2507, 4308, 4309, 2247, 2246, 4245, 4246, 2238, 2237
2508, 4309, 4310, 2248, 2247, 4246, 4247, 2239, 2238
2509, 4310, 4311, 2249, 2248, 4247, 4248, 2240, 2239
2510, 4311, 4312, 2250, 2249, 4248, 4249, 2241, 2240
2511, 4312, 4313, 2251, 2250, 4249, 4250, 2242, 2241
2512, 4313, 2224,  520, 2251, 4250, 2217,  521, 2242
2513,   13,  393, 2141,  383,  349, 1830, 4251, 1682
2514,  393,  394, 2142, 2141, 1830, 1831, 4252, 4251
2515,  394,  395, 2143, 2142, 1831, 1832, 4253, 4252
2516,  395,  396, 2144, 2143, 1832, 1833, 4254, 4253
2517,  396,  397, 2145, 2144, 1833, 1834, 4255, 4254
2518,  397,  398, 2146, 2145, 1834, 1835, 4256, 4255
2519,  398,  399, 2147, 2146, 1835, 1836, 4257, 4256
2520,  399,  400, 2148, 2147, 1836, 1837, 4258, 4257
2521,  400,  401, 2149, 2148, 1837, 1838, 4259, 4258
2522,  401,   33,  510, 2149, 1838,  425, 2218, 4259
2523,  383, 2141, 2150,  382, 1682, 4251, 4260, 1681
2524, 2141, 2142, 2151, 2150, 4251, 4252, 4261, 4260
2525, 2142, 2143, 2152, 2151, 4252, 4253, 4262, 4261
2526, 2143, 2144, 2153, 2152, 4253, 4254, 4263, 4262
2527, 2144, 2145, 2154, 2153, 4254, 4255, 4264, 4263
2528, 2145, 2146, 2155, 2154, 4255, 4256, 4265, 4264
2529, 2146, 2147, 2156, 2155, 4256, 4257, 4266, 4265
2530, 2147, 2148, 2157, 2156, 4257, 4258, 4267, 4266
2531, 2148, 2149, 2158, 2157, 4258, 4259, 4268, 4267
2532, 2149,  510,  509, 2158, 4259, 2218, 2219, 4268
2533,  382, 2150, 2159,  381, 1681, 4260, 4269, 1680
2534, 2150, 2151, 2160, 2159, 4260, 4261, 4270, 4269
2535, 2151, 2152, 2161, 2160, 4261, 4262, 4271, 4270
2536, 2152, 2153, 2162, 2161, 4262, 4263, 4272, 4271
2537, 2153, 2154, 2163, 2162, 4263, 4264, 4273, 4272
2538, 2154, 2155, 2164, 2163, 4264, 4265, 4274, 4273
2539, 2155, 2156, 2165, 2164, 4265, 4266, 4275, 4274
2540, 2156, 2157, 2166, 2165, 4266, 4267, 4276, 4275
2541, 2157, 2158, 2167, 2166, 4267, 4268, 4277, 4276
2542, 2158,  509,  508, 2167, 4268, 2219, 2220, 4277
2543,  381, 2159, 2168,  380, 1680, 4269, 4278, 1679
2544, 2159, 2160, 2169, 2168, 4269, 4270, 4279, 4278
2545, 2160, 2161, 2170, 2169, 4270, 4271, 4280, 4279
2546, 2161, 2162, 2171, 2170, 4271, 4272, 4281, 4280
2547, 2162, 2163, 2172, 2171, 4272, 4273, 4282, 4281
2548, 2163, 2164, 2173, 2172, 4273, 4274, 4283, 4282
2549, 2164, 2165, 2174, 2173, 4274, 4275, 4284, 4283
2550, 2165, 2166, 2175, 2174, 4275, 4276, 4285, 4284
2551, 2166, 2167, 2176, 2175, 4276, 4277, 4286, 4285
2552, 2167,  508,  507, 2176, 4277, 2220, 2221, 4286
2553,  380, 2168, 2177,  379, 1679, 4278, 4287, 1678
2554, 2168, 2169, 2178, 2177, 4278, 4279, 4288, 4287
2555, 2169, 2170, 2179, 2178, 4279, 4280, 4289, 4288
2556, 2170, 2171, 2180, 2179, 4280, 4281, 4290, 4289
2557, 2171, 2172, 2181, 2180, 4281, 4282, 4291, 4290
2558, 2172, 2173, 2182, 2181, 4282, 4283, 4292, 4291
2559, 2173, 2174, 2183, 2182, 4283, 4284, 4293, 4292
2560, 2174, 2175, 2184, 2183, 4284, 4285, 4294, 4293
2561, 2175, 2176, 2185, 2184, 4285, 4286, 4295, 4294
2562, 2176,  507,  506, 2185, 4286, 2221, 2222, 4295
2563,  379, 2177, 2186,  378, 1678, 4287, 4296, 1677
2564, 2177, 2178, 2187, 2186, 4287, 4288, 4297, 4296
2565, 2178, 2179, 2188, 2187, 4288, 4289, 4298, 4297
2566, 2179, 2180, 2189, 2188, 4289, 4290, 4299, 4298
2567, 2180, 2181, 2190, 2189, 4290, 4291, 4300, 4299
2568, 2181, 2182, 2191, 2190, 4291, 4292, 4301, 4300
2569, 2182, 2183, 2192, 2191, 4292, 4293, 4302, 4301
2570, 2183, 2184, 2193, 2192, 4293, 4294, 4303, 4302
2571, 2184, 2185, 2194, 2193, 4294, 4295, 4304, 4303
2572, 2185,  506,  505, 2194, 4295, 2222, 2223, 4304
2573,  378, 2186, 2195,  377, 1677, 4296, 4305, 1676
2574, 2186, 2187, 2196, 2195, 4296, 4297, 4306, 4305
2575, 2187, 2188, 2197, 2196, 4297, 4298, 4307, 4306
2576, 2188, 2189, 2198, 2197, 4298, 4299, 4308, 4307
2577, 2189, 2190, 2199, 2198, 4299, 4300, 4309, 4308
2578, 2190, 2191, 2200, 2199, 4300, 4301, 4310, 4309
2579, 2191, 2192, 2201, 2200, 4301, 4302, 4311, 4310
2580, 2192, 2193, 2202, 2201, 4302, 4303, 4312, 4311
2581, 2193, 2194, 2203, 2202, 4303, 4304, 4313, 4312
2582, 2194,  505,  504, 2203, 4304, 2223, 2224, 4313
2583,  377, 2195,  511,   31, 1676, 4305, 2243,  389
2584, 2195, 2196,  512,  511, 4305, 4306, 2244, 2243
2585, 2196, 2197,  513,  512, 4306, 4307, 2245, 2244
2586, 2197, 2198,  514,  513, 4307, 4308, 2246, 2245
2587, 2198, 2199,  515,  514, 4308, 4309, 2247, 2246
2588, 2199, 2200,  516,  515, 4309, 4310, 2248, 2247
2589, 2200, 2201,  517,  516, 4310, 4311, 2249, 2248
2590, 2201, 2202,  518,  517, 4311, 4312, 2250, 2249
2591, 2202, 2203,  519,  518, 4312, 4313, 2251, 2250
2592, 2203,  504,   40,  519, 4313, 2224,  520, 2251
2593,  478, 2047, 4314, 2273,   36,  430, 2252,  539
2594, 2047, 2046, 4315, 4314,  430,  429, 2253, 2252
2595, 2046, 2045, 4316, 4315,  429,  428, 2254, 2253
2596, 2045,  467, 2343, 4316,  428,   35,  523, 2254
2597, 2273, 4314, 4317, 2274,  539, 2252, 2255,  538
2598, 4314, 4315, 4318, 4317, 2252, 2253, 2256, 2255
2599, 4315, 4316, 4319, 4318, 2253, 2254, 2257, 2256
2600, 4316, 2343, 2344, 4319, 2254,  523,  524, 2257
2601, 2274, 4317, 4320, 2275,  538, 2255, 2258,  537
2602, 4317, 4318, 4321, 4320, 2255, 2256, 2259, 2258
2603, 4318, 4319, 4322, 4321, 2256, 2257, 2260, 2259
2604, 4319, 2344, 2345, 4322, 2257,  524,  525, 2260
2605, 2275, 4320, 4323, 2276,  537, 2258, 2261,  536
2606, 4320, 4321, 4324, 4323, 2258, 2259, 2262, 2261
2607, 4321, 4322, 4325, 4324, 2259, 2260, 2263, 2262
2608, 4322, 2345, 2346, 4325, 2260,  525,  526, 2263
2609, 2276, 4323, 4326, 2277,  536, 2261, 2264,  535
2610, 4323, 4324, 4327, 4326, 2261, 2262, 2265, 2264
2611, 4324, 4325, 4328, 4327, 2262, 2263, 2266, 2265
2612, 4325, 2346, 2347, 4328, 2263,  526,  527, 2266
2613, 2277, 4326, 4329, 2278,  535, 2264, 2267,  534
2614, 4326, 4327, 4330, 4329, 2264, 2265, 2268, 2267
2615, 4327, 4328, 4331, 4330, 2265, 2266, 2269, 2268
2616, 4328, 2347, 2348, 4331, 2266,  527,  528, 2269
2617, 2278, 4329, 4332, 2279,  534, 2267, 2270,  533
2618, 4329, 4330, 4333, 4332, 2267, 2268, 2271, 2270
2619, 4330, 4331, 4334, 4333, 2268, 2269, 2272, 2271
2620, 4331, 2348, 2349, 4334, 2269,  528,  529, 2272
2621, 2279, 4332, 2413,  540,  533, 2270,  532,   42
2622, 4332, 4333, 2414, 2413, 2270, 2271,  531,  532
2623, 4333, 4334, 2415, 2414, 2271, 2272,  530,  531
2624, 4334, 2349,  559, 2415, 2272,  529,   41,  530
2625,  479, 2044, 4335, 2280,  478, 2047, 4314, 2273
2626, 2044, 2043, 4336, 4335, 2047, 2046, 4315, 4314
2627, 2043, 2042, 4337, 4336, 2046, 2045, 4316, 4315
2628, 2042,  466, 2350, 4337, 2045,  467, 2343, 4316
2629, 2280, 4335, 4338, 2281, 2273, 4314, 4317, 2274
2630, 4335, 4336, 4339, 4338, 4314, 4315, 4318, 4317
2631, 4336, 4337, 4340, 4339, 4315, 4316, 4319, 4318
2632, 4337, 2350, 2351, 4340, 4316, 2343, 2344, 4319
2633, 2281, 4338, 4341, 2282, 2274, 4317, 4320, 2275
2634, 4338, 4339, 4342, 4341, 4317, 4318, 4321, 4320
2635, 4339, 4340, 4343, 4342, 4318, 4319, 4322, 4321
2636, 4340, 2351, 2352, 4343, 4319, 2344, 2345, 4322
2637, 2282, 4341, 4344, 2283, 2275, 4320, 4323, 2276
2638, 4341, 4342, 4345, 4344, 4320, 4321, 4324, 4323
2639, 4342, 4343, 4346, 4345, 4321, 4322, 4325, 4324
2640, 4343, 2352, 2353, 4346, 4322, 2345, 2346, 4325
2641, 2283, 4344, 4347, 2284, 2276, 4323, 4326, 2277
2642, 4344, 4345, 4348, 4347, 4323, 4324, 4327, 4326
2643, 4345, 4346, 4349, 4348, 4324, 4325, 4328, 4327
2644, 4346, 2353, 2354, 4349, 4325, 2346, 2347, 4328
2645, 2284, 4347, 4350, 2285, 2277, 4326, 4329, 2278
2646, 4347, 4348, 4351, 4350, 4326, 4327, 4330, 4329
2647, 4348, 4349, 4352, 4351, 4327, 4328, 4331, 4330
2648, 4349, 2354, 2355, 4352, 4328, 2347, 2348, 4331
2649, 2285, 4350, 4353, 2286, 2278, 4329, 4332, 2279
2650, 4350, 4351, 4354, 4353, 4329, 4330, 4333, 4332
2651, 4351, 4352, 4355, 4354, 4330, 4331, 4334, 4333
2652, 4352, 2355, 2356, 4355, 4331, 2348, 2349, 4334
2653, 2286, 4353, 2416,  541, 2279, 4332, 2413,  540
2654, 4353, 4354, 2417, 2416, 4332, 4333, 2414, 2413
2655, 4354, 4355, 2418, 2417, 4333, 4334, 2415, 2414
2656, 4355, 2356,  558, 2418, 4334, 2349,  559, 2415
2657,  480, 2041, 4356, 2287,  479, 2044, 4335, 2280
2658, 2041, 2040, 4357, 4356, 2044, 2043, 4336, 4335
2659, 2040, 2039, 4358, 4357, 2043, 2042, 4337, 4336
2660, 2039,  465, 2357, 4358, 2042,  466, 2350, 4337
2661, 2287, 4356, 4359, 2288, 2280, 4335, 4338, 2281
2662, 4356, 4357, 4360, 4359, 4335, 4336, 4339, 4338
2663, 4357, 4358, 4361, 4360, 4336, 4337, 4340, 4339
2664, 4358, 2357, 2358, 4361, 4337, 2350, 2351, 4340
2665, 2288, 4359, 4362, 2289, 2281, 4338, 4341, 2282
2666, 4359, 4360, 4363, 4362, 4338, 4339, 4342, 4341
2667, 4360, 4361, 4364, 4363, 4339, 4340, 4343, 4342
2668, 4361, 2358, 2359, 4364, 4340, 2351, 2352, 4343
2669, 2289, 4362, 4365, 2290, 2282, 4341, 4344, 2283
2670, 4362, 4363, 4366, 4365, 4341, 4342, 4345, 4344
2671, 4363, 4364, 4367, 4366, 4342, 4343, 4346, 4345
2672, 4364, 2359, 2360, 4367, 4343, 2352, 2353, 4346
2673, 2290, 4365, 4368, 2291, 2283, 4344, 4347, 2284
2674, 4365, 4366, 4369, 4368, 4344, 4345, 4348, 4347
2675, 4366, 4367, 4370, 4369, 4345, 4346, 4349, 4348
2676, 4367, 2360, 2361, 4370, 4346, 2353, 2354, 4349
2677, 2291, 4368, 4371, 2292, 2284, 4347, 4350, 2285
2678, 4368, 4369, 4372, 4371, 4347, 4348, 4351, 4350
2679, 4369, 4370, 4373, 4372, 4348, 4349, 4352, 4351
2680, 4370, 2361, 2362, 4373, 4349, 2354, 2355, 4352
2681, 2292, 4371, 4374, 2293, 2285, 4350, 4353, 2286
2682, 4371, 4372, 4375, 4374, 4350, 4351, 4354, 4353
2683, 4372, 4373, 4376, 4375, 4351, 4352, 4355, 4354
2684, 4373, 2362, 2363, 4376, 4352, 2355, 2356, 4355
2685, 2293, 4374, 2419,  542, 2286, 4353, 2416,  541
2686, 4374, 4375, 2420, 2419, 4353, 4354, 2417, 2416
2687, 4375, 4376, 2421, 2420, 4354, 4355, 2418, 2417
2688, 4376, 2363,  557, 2421, 4355, 2356,  558, 2418
2689,  481, 2038, 4377, 2294,  480, 2041, 4356, 2287
2690, 2038, 2037, 4378, 4377, 2041, 2040, 4357, 4356
2691, 2037, 2036, 4379, 4378, 2040, 2039, 4358, 4357
2692, 2036,  464, 2364, 4379, 2039,  465, 2357, 4358
2693, 2294, 4377, 4380, 2295, 2287, 4356, 4359, 2288
2694, 4377, 4378, 4381, 4380, 4356, 4357, 4360, 4359
2695, 4378, 4379, 4382, 4381, 4357, 4358, 4361, 4360
2696, 4379, 2364, 2365, 4382, 4358, 2357, 2358, 4361
2697, 2295, 4380, 4383, 2296, 2288, 4359, 4362, 2289
2698, 4380, 4381, 4384, 4383, 4359, 4360, 4363, 4362
2699, 4381, 4382, 4385, 4384, 4360, 4361, 4364, 4363
2700, 4382, 2365, 2366, 4385, 4361, 2358, 2359, 4364
2701, 2296, 4383, 4386, 2297, 2289, 4362, 4365, 2290
2702, 4383, 4384, 4387, 4386, 4362, 4363, 4366, 4365
2703, 4384, 4385, 4388, 4387, 4363, 4364, 4367, 4366
2704, 4385, 2366, 2367, 4388, 4364, 2359, 2360, 4367
2705, 2297, 4386, 4389, 2298, 2290, 4365, 4368, 2291
2706, 4386, 4387, 4390, 4389, 4365, 4366, 4369, 4368
2707, 4387, 4388, 4391, 4390, 4366, 4367, 4370, 4369
2708, 4388, 2367, 2368, 4391, 4367, 2360, 2361, 4370
2709, 2298, 4389, 4392, 2299, 2291, 4368, 4371, 2292
2710, 4389, 4390, 4393, 4392, 4368, 4369, 4372, 4371
2711, 4390, 4391, 4394, 4393, 4369, 4370, 4373, 4372
2712, 4391, 2368, 2369, 4394, 4370, 2361, 2362, 4373
2713, 2299, 4392, 4395, 2300, 2292, 4371, 4374, 2293
2714, 4392, 4393, 4396, 4395, 4371, 4372, 4375, 4374
2715, 4393, 4394, 4397, 4396, 4372, 4373, 4376, 4375
2716, 4394, 2369, 2370, 4397, 4373, 2362, 2363, 4376
2717, 2300, 4395, 2422,  543, 2293, 4374, 2419,  542
2718, 4395, 4396, 2423, 2422, 4374, 4375, 2420, 2419
2719, 4396, 4397, 2424, 2423, 4375, 4376, 2421, 2420
2720, 4397, 2370,  556, 2424, 4376, 2363,  557, 2421
2721,  482, 2035, 4398, 2301,  481, 2038, 4377, 2294
2722, 2035, 2034, 4399, 4398, 2038, 2037, 4378, 4377
2723, 2034, 2033, 4400, 4399, 2037, 2036, 4379, 4378
2724, 2033,  463, 2371, 4400, 2036,  464, 2364, 4379
2725, 2301, 4398, 4401, 2302, 2294, 4377, 4380, 2295
2726, 4398, 4399, 4402, 4401, 4377, 4378, 4381, 4380
2727, 4399, 4400, 4403, 4402, 4378, 4379, 4382, 4381
2728, 4400, 2371, 2372, 4403, 4379, 2364, 2365, 4382
2729, 2302, 4401, 4404, 2303, 2295, 4380, 4383, 2296
2730, 4401, 4402, 4405, 4404, 4380, 4381, 4384, 4383
2731, 4402, 4403, 4406, 4405, 4381, 4382, 4385, 4384
2732, 4403, 2372, 2373, 4406, 4382, 2365, 2366, 4385
2733, 2303, 4404, 4407, 2304, 2296, 4383, 4386, 2297
2734, 4404, 4405, 4408, 4407, 4383, 4384, 4387, 4386
2735, 4405, 4406, 4409, 4408, 4384, 4385, 4388, 4387
2736, 4406, 2373, 2374, 4409, 4385, 2366, 2367, 4388
2737, 2304, 4407, 4410, 2305, 2297, 4386, 4389, 2298
2738, 4407, 4408, 4411, 4410, 4386, 4387, 4390, 4389
2739, 4408, 4409, 4412, 4411, 4387, 4388, 4391, 4390
2740, 4409, 2374, 2375, 4412, 4388, 2367, 2368, 4391
2741, 2305, 4410, 4413, 2306, 2298, 4389, 4392, 2299
2742, 4410, 4411, 4414, 4413, 4389, 4390, 4393, 4392
2743, 4411, 4412, 4415, 4414, 4390, 4391, 4394, 4393
2744, 4412, 2375, 2376, 4415, 4391, 2368, 2369, 4394
2745, 2306, 4413, 4416, 2307, 2299, 4392, 4395, 2300
2746, 4413, 4414, 4417, 4416, 4392, 4393, 4396, 4395
2747, 4414, 4415, 4418, 4417, 4393, 4394, 4397, 4396
2748, 4415, 2376, 2377, 4418, 4394, 2369, 2370, 4397
2749, 2307, 4416, 2425,  544, 2300, 4395, 2422,  543
2750, 4416, 4417, 2426, 2425, 4395, 4396, 2423, 2422
2751, 4417, 4418, 2427, 2426, 4396, 4397, 2424, 2423
2752, 4418, 2377,  555, 2427, 4397, 2370,  556, 2424
2753,  483, 2032, 4419, 2308,  482, 2035, 4398, 2301
2754, 2032, 2031, 4420, 4419, 2035, 2034, 4399, 4398
2755, 2031, 2030, 4421, 4420, 2034, 2033, 4400, 4399
2756, 2030,  462, 2378, 4421, 2033,  463, 2371, 4400
2757, 2308, 4419, 4422, 2309, 2301, 4398, 4401, 2302
2758, 4419, 4420, 4423, 4422, 4398, 4399, 4402, 4401
2759, 4420, 4421, 4424, 4423, 4399, 4400, 4403, 4402
2760, 4421, 2378, 2379, 4424, 4400, 2371, 2372, 4403
2761, 2309, 4422, 4425, 2310, 2302, 4401, 4404, 2303
2762, 4422, 4423, 4426, 4425, 4401, 4402, 4405, 4404
2763, 4423, 4424, 4427, 4426, 4402, 4403, 4406, 4405
2764, 4424, 2379, 2380, 4427, 4403, 2372, 2373, 4406
2765, 2310, 4425, 4428, 2311, 2303, 4404, 4407, 2304
2766, 4425, 4426, 4429, 4428, 4404, 4405, 4408, 4407
2767, 4426, 4427, 4430, 4429, 4405, 4406, 4409, 4408
2768, 4427, 2380, 2381, 4430, 4406, 2373, 2374, 4409
2769, 2311, 4428, 4431, 2312, 2304, 4407, 4410, 2305
2770, 4428, 4429, 4432, 4431, 4407, 4408, 4411, 4410
2771, 4429, 4430, 4433, 4432, 4408, 4409, 4412, 4411
2772, 4430, 2381, 2382, 4433, 4409, 2374, 2375, 4412
2773, 2312, 4431, 4434, 2313, 2305, 4410, 4413, 2306
2774, 4431, 4432, 4435, 4434, 4410, 4411, 4414, 4413
2775, 4432, 4433, 4436, 4435, 4411, 4412, 4415, 4414
2776, 4433, 2382, 2383, 4436, 4412, 2375, 2376, 4415
2777, 2313, 4434, 4437, 2314, 2306, 4413, 4416, 2307
2778, 4434, 4435, 4438, 4437, 4413, 4414, 4417, 4416
2779, 4435, 4436, 4439, 4438, 4414, 4415, 4418, 4417
2780, 4436, 2383, 2384, 4439, 4415, 2376, 2377, 4418
2781, 2314, 4437, 2428,  545, 2307, 4416, 2425,  544
2782, 4437, 4438, 2429, 2428, 4416, 4417, 2426, 2425
2783, 4438, 4439, 2430, 2429, 4417, 4418, 2427, 2426
2784, 4439, 2384,  554, 2430, 4418, 2377,  555, 2427
2785,  484, 2029, 4440, 2315,  483, 2032, 4419, 2308
2786, 2029, 2028, 4441, 4440, 2032, 2031, 4420, 4419
2787, 2028, 2027, 4442, 4441, 2031, 2030, 4421, 4420
2788, 2027,  461, 2385, 4442, 2030,  462, 2378, 4421
2789, 2315, 4440, 4443, 2316, 2308, 4419, 4422, 2309
2790, 4440, 4441, 4444, 4443, 4419, 4420, 4423, 4422
2791, 4441, 4442, 4445, 4444, 4420, 4421, 4424, 4423
2792, 4442, 2385, 2386, 4445, 4421, 2378, 2379, 4424
2793, 2316, 4443, 4446, 2317, 2309, 4422, 4425, 2310
2794, 4443, 4444, 4447, 4446, 4422, 4423, 4426, 4425
2795, 4444, 4445, 4448, 4447, 4423, 4424, 4427, 4426
2796, 4445, 2386, 2387, 4448, 4424, 2379, 2380, 4427
2797, 2317, 4446, 4449, 2318, 2310, 4425, 4428, 2311
2798, 4446, 4447, 4450, 4449, 4425, 4426, 4429, 4428
2799, 4447, 4448, 4451, 4450, 4426, 4427, 4430, 4429
2800, 4448, 2387, 2388, 4451, 4427, 2380, 2381, 4430
2801, 2318, 4449, 4452, 2319, 2311, 4428, 4431, 2312
2802, 4449, 4450, 4453, 4452, 4428, 4429, 4432, 4431
2803, 4450, 4451, 4454, 4453, 4429, 4430, 4433, 4432
2804, 4451, 2388, 2389, 4454, 4430, 2381, 2382, 4433
2805, 2319, 4452, 4455, 2320, 2312, 4431, 4434, 2313
2806, 4452, 4453, 4456, 4455, 4431, 4432, 4435, 4434
2807, 4453, 4454, 4457, 4456, 4432, 4433, 4436, 4435
2808, 4454, 2389, 2390, 4457, 4433, 2382, 2383, 4436
2809, 2320, 4455, 4458, 2321, 2313, 4434, 4437, 2314
2810, 4455, 4456, 4459, 4458, 4434, 4435, 4438, 4437
2811, 4456, 4457, 4460, 4459, 4435, 4436, 4439, 4438
2812, 4457, 2390, 2391, 4460, 4436, 2383, 2384, 4439
2813, 2321, 4458, 2431,  546, 2314, 4437, 2428,  545
2814, 4458, 4459, 2432, 2431, 4437, 4438, 2429, 2428
2815, 4459, 4460, 2433, 2432, 4438, 4439, 2430, 2429
2816, 4460, 2391,  553, 2433, 4439, 2384,  554, 2430
2817,  485, 2026, 4461, 2322,  484, 2029, 4440, 2315
2818, 2026, 2025, 4462, 4461, 2029, 2028, 4441, 4440
2819, 2025, 2024, 4463, 4462, 2028, 2027, 4442, 4441
2820, 2024,  460, 2392, 4463, 2027,  461, 2385, 4442
2821, 2322, 4461, 4464, 2323, 2315, 4440, 4443, 2316
2822, 4461, 4462, 4465, 4464, 4440, 4441, 4444, 4443
2823, 4462, 4463, 4466, 4465, 4441, 4442, 4445, 4444
2824, 4463, 2392, 2393, 4466, 4442, 2385, 2386, 4445
2825, 2323, 4464, 4467, 2324, 2316, 4443, 4446, 2317
2826, 4464, 4465, 4468, 4467, 4443, 4444, 4447, 4446
2827, 4465, 4466, 4469, 4468, 4444, 4445, 4448, 4447
2828, 4466, 2393, 2394, 4469, 4445, 2386, 2387, 4448
2829, 2324, 4467, 4470, 2325, 2317, 4446, 4449, 2318
2830, 4467, 4468, 4471, 4470, 4446, 4447, 4450, 4449
2831, 4468, 4469, 4472, 4471, 4447, 4448, 4451, 4450
2832, 4469, 2394, 2395, 4472, 4448, 2387, 2388, 4451
2833, 2325, 4470, 4473, 2326, 2318, 4449, 4452, 2319
2834, 4470, 4471, 4474, 4473, 4449, 4450, 4453, 4452
2835, 4471, 4472, 4475, 4474, 4450, 4451, 4454, 4453
2836, 4472, 2395, 2396, 4475, 4451, 2388, 2389, 4454
2837, 2326, 4473, 4476, 2327, 2319, 4452, 4455, 2320
2838, 4473, 4474, 4477, 4476, 4452, 4453, 4456, 4455
2839, 4474, 4475, 4478, 4477, 4453, 4454, 4457, 4456
2840, 4475, 2396, 2397, 4478, 4454, 2389, 2390, 4457
2841, 2327, 4476, 4479, 2328, 2320, 4455, 4458, 2321
2842, 4476, 4477, 4480, 4479, 4455, 4456, 4459, 4458
2843, 4477, 4478, 4481, 4480, 4456, 4457, 4460, 4459
2844, 4478, 2397, 2398, 4481, 4457, 2390, 2391, 4460
2845, 2328, 4479, 2434,  547, 2321, 4458, 2431,  546
2846, 4479, 4480, 2435, 2434, 4458, 4459, 2432, 2431
2847, 4480, 4481, 2436, 2435, 4459, 4460, 2433, 2432
2848, 4481, 2398,  552, 2436, 4460, 2391,  553, 2433
2849,  486, 2023, 4482, 2329,  485, 2026, 4461, 2322
2850, 2023, 2022, 4483, 4482, 2026, 2025, 4462, 4461
2851, 2022, 2021, 4484, 4483, 2025, 2024, 4463, 4462
2852, 2021,  459, 2399, 4484, 2024,  460, 2392, 4463
2853, 2329, 4482, 4485, 2330, 2322, 4461, 4464, 2323
2854, 4482, 4483, 4486, 4485, 4461, 4462, 4465, 4464
2855, 4483, 4484, 4487, 4486, 4462, 4463, 4466, 4465
2856, 4484, 2399, 2400, 4487, 4463, 2392, 2393, 4466
2857, 2330, 4485, 4488, 2331, 2323, 4464, 4467, 2324
2858, 4485, 4486, 4489, 4488, 4464, 4465, 4468, 4467
2859, 4486, 4487, 4490, 4489, 4465, 4466, 4469, 4468
2860, 4487, 2400, 2401, 4490, 4466, 2393, 2394, 4469
2861, 2331, 4488, 4491, 2332, 2324, 4467, 4470, 2325
2862, 4488, 4489, 4492, 4491, 4467, 4468, 4471, 4470
2863, 4489, 4490, 4493, 4492, 4468, 4469, 4472, 4471
2864, 4490, 2401, 2402, 4493, 4469, 2394, 2395, 4472
2865, 2332, 4491, 4494, 2333, 2325, 4470, 4473, 2326
2866, 4491, 4492, 4495, 4494, 4470, 4471, 4474, 4473
2867, 4492, 4493, 4496, 4495, 4471, 4472, 4475, 4474
2868, 4493, 2402, 2403, 4496, 4472, 2395, 2396, 4475
2869, 2333, 4494, 4497, 2334, 2326, 4473, 4476, 2327
2870, 4494, 4495, 4498, 4497, 4473, 4474, 4477, 4476
2871, 4495, 4496, 4499, 4498, 4474, 4475, 4478, 4477
2872, 4496, 2403, 2404, 4499, 4475, 2396, 2397, 4478
2873, 2334, 4497, 4500, 2335, 2327, 4476, 4479, 2328
2874, 4497, 4498, 4501, 4500, 4476, 4477, 4480, 4479
2875, 4498, 4499, 4502, 4501, 4477, 4478, 4481, 4480
2876, 4499, 2404, 2405, 4502, 4478, 2397, 2398, 4481
2877, 2335, 4500, 2437,  548, 2328, 4479, 2434,  547
2878, 4500, 4501, 2438, 2437, 4479, 4480, 2435, 2434
2879, 4501, 4502, 2439, 2438, 4480, 4481, 2436, 2435
2880, 4502, 2405,  551, 2439, 4481, 2398,  552, 2436
2881,  487, 2020, 4503, 2336,  486, 2023, 4482, 2329
2882, 2020, 2019, 4504, 4503, 2023, 2022, 4483, 4482
2883, 2019, 2018, 4505, 4504, 2022, 2021, 4484, 4483
2884, 2018,  458, 2406, 4505, 2021,  459, 2399, 4484
2885, 2336, 4503, 4506, 2337, 2329, 4482, 4485, 2330
2886, 4503, 4504, 4507, 4506, 4482, 4483, 4486, 4485
2887, 4504, 4505, 4508, 4507, 4483, 4484, 4487, 4486
2888, 4505, 2406, 2407, 4508, 4484, 2399, 2400, 4487
2889, 2337, 4506, 4509, 2338, 2330, 4485, 4488, 2331
2890, 4506, 4507, 4510, 4509, 4485, 4486, 4489, 4488
2891, 4507, 4508, 4511, 4510, 4486, 4487, 4490, 4489
2892, 4508, 2407, 2408, 4511, 4487, 2400, 2401, 4490
2893, 2338, 4509, 4512, 2339, 2331, 4488, 4491, 2332
2894, 4509, 4510, 4513, 4512, 4488, 4489, 4492, 4491
2895, 4510, 4511, 4514, 4513, 4489, 4490, 4493, 4492
2896, 4511, 2408, 2409, 4514, 4490, 2401, 2402, 4493
2897, 2339, 4512, 4515, 2340, 2332, 4491, 4494, 2333
2898, 4512, 4513, 4516, 4515, 4491, 4492, 4495, 4494
2899, 4513, 4514, 4517, 4516, 4492, 4493, 4496, 4495
2900, 4514, 2409, 2410, 4517, 4493, 2402, 2403, 4496
2901, 2340, 4515, 4518, 2341, 2333, 4494, 4497, 2334
2902, 4515, 4516, 4519, 4518, 4494, 4495, 4498, 4497
2903, 4516, 4517, 4520, 4519, 4495, 4496, 4499, 4498
2904, 4517, 2410, 2411, 4520, 4496, 2403, 2404, 4499
2905, 2341, 4518, 4521, 2342, 2334, 4497, 4500, 2335
2906, 4518, 4519, 4522, 4521, 4497, 4498, 4501, 4500
2907, 4519, 4520, 4523, 4522, 4498, 4499, 4502, 4501
2908, 4520, 2411, 2412, 4523, 4499, 2404, 2405, 4502
2909, 2342, 4521, 2440,  549, 2335, 4500, 2437,  548
2910, 4521, 4522, 2441, 2440, 4500, 4501, 2438, 2437
2911, 4522, 4523, 2442, 2441, 4501, 4502, 2439, 2438
2912, 4523, 2412,  550, 2442, 4502, 2405,  551, 2439
2913,   27,  352, 1548,  330,  487, 2020, 4503, 2336
2914,  352,  351, 1555, 1548, 2020, 2019, 4504, 4503
2915,  351,  350, 1562, 1555, 2019, 2018, 4505, 4504
2916,  350,   15,  203, 1562, 2018,  458, 2406, 4505
2917,  330, 1548, 1549,  331, 2336, 4503, 4506, 2337
2918, 1548, 1555, 1556, 1549, 4503, 4504, 4507, 4506
2919, 1555, 1562, 1563, 1556, 4504, 4505, 4508, 4507
2920, 1562,  203,  202, 1563, 4505, 2406, 2407, 4508
2921,  331, 1549, 1550,  332, 2337, 4506, 4509, 2338
2922, 1549, 1556, 1557, 1550, 4506, 4507, 4510, 4509
2923, 1556, 1563, 1564, 1557, 4507, 4508, 4511, 4510
2924, 1563,  202,  201, 1564, 4508, 2407, 2408, 4511
2925,  332, 1550, 1551,  333, 2338, 4509, 4512, 2339
2926, 1550, 1557, 1558, 1551, 4509, 4510, 4513, 4512
2927, 1557, 1564, 1565, 1558, 4510, 4511, 4514, 4513
2928, 1564,  201,  200, 1565, 4511, 2408, 2409, 4514
2929,  333, 1551, 1552,  334, 2339, 4512, 4515, 2340
2930, 1551, 1558, 1559, 1552, 4512, 4513, 4516, 4515
2931, 1558, 1565, 1566, 1559, 4513, 4514, 4517, 4516
2932, 1565,  200,  199, 1566, 4514, 2409, 2410, 4517
2933,  334, 1552, 1553,  335, 2340, 4515, 4518, 2341
2934, 1552, 1559, 1560, 1553, 4515, 4516, 4519, 4518
2935, 1559, 1566, 1567, 1560, 4516, 4517, 4520, 4519
2936, 1566,  199,  198, 1567, 4517, 2410, 2411, 4520
2937,  335, 1553, 1554,  336, 2341, 4518, 4521, 2342
2938, 1553, 1560, 1561, 1554, 4518, 4519, 4522, 4521
2939, 1560, 1567, 1568, 1561, 4519, 4520, 4523, 4522
2940, 1567,  198,  197, 1568, 4520, 2411, 2412, 4523
2941,  336, 1554,  301,   24, 2342, 4521, 2440,  549
2942, 1554, 1561,  302,  301, 4521, 4522, 2441, 2440
2943, 1561, 1568,  303,  302, 4522, 4523, 2442, 2441
2944, 1568,  197,   16,  303, 4523, 2412,  550, 2442
2945,  540, 2413, 4524, 2464,   42,  532, 2443,  576
2946, 2413, 2414, 4525, 4524,  532,  531, 2444, 2443
2947, 2414, 2415, 4526, 4525,  531,  530, 2445, 2444
2948, 2415,  559, 2534, 4526,  530,   41,  560, 2445
2949, 2464, 4524, 4527, 2465,  576, 2443, 2446,  575
2950, 4524, 4525, 4528, 4527, 2443, 2444, 2447, 2446
2951, 4525, 4526, 4529, 4528, 2444, 2445, 2448, 2447
2952, 4526, 2534, 2535, 4529, 2445,  560,  561, 2448
2953, 2465, 4527, 4530, 2466,  575, 2446, 2449,  574
2954, 4527, 4528, 4531, 4530, 2446, 2447, 2450, 2449
2955, 4528, 4529, 4532, 4531, 2447, 2448, 2451, 2450
2956, 4529, 2535, 2536, 4532, 2448,  561,  562, 2451
2957, 2466, 4530, 4533, 2467,  574, 2449, 2452,  573
2958, 4530, 4531, 4534, 4533, 2449, 2450, 2453, 2452
2959, 4531, 4532, 4535, 4534, 2450, 2451, 2454, 2453
2960, 4532, 2536, 2537, 4535, 2451,  562,  563, 2454
2961, 2467, 4533, 4536, 2468,  573, 2452, 2455,  572
2962, 4533, 4534, 4537, 4536, 2452, 2453, 2456, 2455
2963, 4534, 4535, 4538, 4537, 2453, 2454, 2457, 2456
2964, 4535, 2537, 2538, 4538, 2454,  563,  564, 2457
2965, 2468, 4536, 4539, 2469,  572, 2455, 2458,  571
2966, 4536, 4537, 4540, 4539, 2455, 2456, 2459, 2458
2967, 4537, 4538, 4541, 4540, 2456, 2457, 2460, 2459
2968, 4538, 2538, 2539, 4541, 2457,  564,  565, 2460
2969, 2469, 4539, 4542, 2470,  571, 2458, 2461,  570
2970, 4539, 4540, 4543, 4542, 2458, 2459, 2462, 2461
2971, 4540, 4541, 4544, 4543, 2459, 2460, 2463, 2462
2972, 4541, 2539, 2540, 4544, 2460,  565,  566, 2463
2973, 2470, 4542, 2604,  577,  570, 2461,  569,   44
2974, 4542, 4543, 2605, 2604, 2461, 2462,  568,  569
2975, 4543, 4544, 2606, 2605, 2462, 2463,  567,  568
2976, 4544, 2540,  596, 2606, 2463,  566,   43,  567
2977,  541, 2416, 4545, 2471,  540, 2413, 4524, 2464
2978, 2416, 2417, 4546, 4545, 2413, 2414, 4525, 4524
2979, 2417, 2418, 4547, 4546, 2414, 2415, 4526, 4525
2980, 2418,  558, 2541, 4547, 2415,  559, 2534, 4526
2981, 2471, 4545, 4548, 2472, 2464, 4524, 4527, 2465
2982, 4545, 4546, 4549, 4548, 4524, 4525, 4528, 4527
2983, 4546, 4547, 4550, 4549, 4525, 4526, 4529, 4528
2984, 4547, 2541, 2542, 4550, 4526, 2534, 2535, 4529
2985, 2472, 4548, 4551, 2473, 2465, 4527, 4530, 2466
2986, 4548, 4549, 4552, 4551, 4527, 4528, 4531, 4530
2987, 4549, 4550, 4553, 4552, 4528, 4529, 4532, 4531
2988, 4550, 2542, 2543, 4553, 4529, 2535, 2536, 4532
2989, 2473, 4551, 4554, 2474, 2466, 4530, 4533, 2467
2990, 4551, 4552, 4555, 4554, 4530, 4531, 4534, 4533
2991, 4552, 4553, 4556, 4555, 4531, 4532, 4535, 4534
2992, 4553, 2543, 2544, 4556, 4532, 2536, 2537, 4535
2993, 2474, 4554, 4557, 2475, 2467, 4533, 4536, 2468
2994, 4554, 4555, 4558, 4557, 4533, 4534, 4537, 4536
2995, 4555, 4556, 4559, 4558, 4534, 4535, 4538, 4537
2996, 4556, 2544, 2545, 4559, 4535, 2537, 2538, 4538
2997, 2475, 4557, 4560, 2476, 2468, 4536, 4539, 2469
2998, 4557, 4558, 4561, 4560, 4536, 4537, 4540, 4539
2999, 4558, 4559, 4562, 4561, 4537, 4538, 4541, 4540
3000, 4559, 2545, 2546, 4562, 4538, 2538, 2539, 4541
3001, 2476, 4560, 4563, 2477, 2469, 4539, 4542, 2470
3002, 4560, 4561, 4564, 4563, 4539, 4540, 4543, 4542
3003, 4561, 4562, 4565, 4564, 4540, 4541, 4544, 4543
3004, 4562, 2546, 2547, 4565, 4541, 2539, 2540, 4544
3005, 2477, 4563, 2607,  578, 2470, 4542, 2604,  577
3006, 4563, 4564, 2608, 2607, 4542, 4543, 2605, 2604
3007, 4564, 4565, 2609, 2608, 4543, 4544, 2606, 2605
3008, 4565, 2547,  595, 2609, 4544, 2540,  596, 2606
3009,  542, 2419, 4566, 2478,  541, 2416, 4545, 2471
3010, 2419, 2420, 4567, 4566, 2416, 2417, 4546, 4545
3011, 2420, 2421, 4568, 4567, 2417, 2418, 4547, 4546
3012, 2421,  557, 2548, 4568, 2418,  558, 2541, 4547
3013, 2478, 4566, 4569, 2479, 2471, 4545, 4548, 2472
3014, 4566, 4567, 4570, 4569, 4545, 4546, 4549, 4548
3015, 4567, 4568, 4571, 4570, 4546, 4547, 4550, 4549
3016, 4568, 2548, 2549, 4571, 4547, 2541, 2542, 4550
3017, 2479, 4569, 4572, 2480, 2472, 4548, 4551, 2473
3018, 4569, 4570, 4573, 4572, 4548, 4549, 4552, 4551
3019, 4570, 4571, 4574, 4573, 4549, 4550, 4553, 4552
3020, 4571, 2549, 2550, 4574, 4550, 2542, 2543, 4553
3021, 2480, 4572, 4575, 2481, 2473, 4551, 4554, 2474
3022, 4572, 4573, 4576, 4575, 4551, 4552, 4555, 4554
3023, 4573, 4574, 4577, 4576, 4552, 4553, 4556, 4555
3024, 4574, 2550, 2551, 4577, 4553, 2543, 2544, 4556
3025, 2481, 4575, 4578, 2482, 2474, 4554, 4557, 2475
3026, 4575, 4576, 4579, 4578, 4554, 4555, 4558, 4557
3027, 4576, 4577, 4580, 4579, 4555, 4556, 4559, 4558
3028, 4577, 2551, 2552, 4580, 4556, 2544, 2545, 4559
3029, 2482, 4578, 4581, 2483, 2475, 4557, 4560, 2476
3030, 4578, 4579, 4582, 4581, 4557, 4558, 4561, 4560
3031, 4579, 4580, 4583, 4582, 4558, 4559, 4562, 4561
3032, 4580, 2552, 2553, 4583, 4559, 2545, 2546, 4562
3033, 2483, 4581, 4584, 2484, 2476, 4560, 4563, 2477
3034, 4581, 4582, 4585, 4584, 4560, 4561, 4564, 4563
3035, 4582, 4583, 4586, 4585, 4561, 4562, 4565, 4564
3036, 4583, 2553, 2554, 4586, 4562, 2546, 2547, 4565
3037, 2484, 4584, 2610,  579, 2477, 4563, 2607,  578
3038, 4584, 4585, 2611, 2610, 4563, 4564, 2608, 2607
3039, 4585, 4586, 2612, 2611, 4564, 4565, 2609, 2608
3040, 4586, 2554,  594, 2612, 4565, 2547,  595, 2609
3041,  543, 2422, 4587, 2485,  542, 2419, 4566, 2478
3042, 2422, 2423, 4588, 4587, 2419, 2420, 4567, 4566
3043, 2423, 2424, 4589, 4588, 2420, 2421, 4568, 4567
3044, 2424,  556, 2555, 4589, 2421,  557, 2548, 4568
3045, 2485, 4587, 4590, 2486, 2478, 4566, 4569, 2479
3046, 4587, 4588, 4591, 4590, 4566, 4567, 4570, 4569
3047, 4588, 4589, 4592, 4591, 4567, 4568, 4571, 4570
3048, 4589, 2555, 2556, 4592, 4568, 2548, 2549, 4571
3049, 2486, 4590, 4593, 2487, 2479, 4569, 4572, 2480
3050, 4590, 4591, 4594, 4593, 4569, 4570, 4573, 4572
3051, 4591, 4592, 4595, 4594, 4570, 4571, 4574, 4573
3052, 4592, 2556, 2557, 4595, 4571, 2549, 2550, 4574
3053, 2487, 4593, 4596, 2488, 2480, 4572, 4575, 2481
3054, 4593, 4594, 4597, 4596, 4572, 4573, 4576, 4575
3055, 4594, 4595, 4598, 4597, 4573, 4574, 4577, 4576
3056, 4595, 2557, 2558, 4598, 4574, 2550, 2551, 4577
3057, 2488, 4596, 4599, 2489, 2481, 4575, 4578, 2482
3058, 4596, 4597, 4600, 4599, 4575, 4576, 4579, 4578
3059, 4597, 4598, 4601, 4600, 4576, 4577, 4580, 4579
3060, 4598, 2558, 2559, 4601, 4577, 2551, 2552, 4580
3061, 2489, 4599, 4602, 2490, 2482, 4578, 4581, 2483
3062, 4599, 4600, 4603, 4602, 4578, 4579, 4582, 4581
3063, 4600, 4601, 4604, 4603, 4579, 4580, 4583, 4582
3064, 4601, 2559, 2560, 4604, 4580, 2552, 2553, 4583
3065, 2490, 4602, 4605, 2491, 2483, 4581, 4584, 2484
3066, 4602, 4603, 4606, 4605, 4581, 4582, 4585, 4584
3067, 4603, 4604, 4607, 4606, 4582, 4583, 4586, 4585
3068, 4604, 2560, 2561, 4607, 4583, 2553, 2554, 4586
3069, 2491, 4605, 2613,  580, 2484, 4584, 2610,  579
3070, 4605, 4606, 2614, 2613, 4584, 4585, 2611, 2610
3071, 4606, 4607, 2615, 2614, 4585, 4586, 2612, 2611
3072, 4607, 2561,  593, 2615, 4586, 2554,  594, 2612
3073,  544, 2425, 4608, 2492,  543, 2422, 4587, 2485
3074, 2425, 2426, 4609, 4608, 2422, 2423, 4588, 4587
3075, 2426, 2427, 4610, 4609, 2423, 2424, 4589, 4588
3076, 2427,  555, 2562, 4610, 2424,  556, 2555, 4589
3077, 2492, 4608, 4611, 2493, 2485, 4587, 4590, 2486
3078, 4608, 4609, 4612, 4611, 4587, 4588, 4591, 4590
3079, 4609, 4610, 4613, 4612, 4588, 4589, 4592, 4591
3080, 4610, 2562, 2563, 4613, 4589, 2555, 2556, 4592
3081, 2493, 4611, 4614, 2494, 2486, 4590, 4593, 2487
3082, 4611, 4612, 4615, 4614, 4590, 4591, 4594, 4593
3083, 4612, 4613, 4616, 4615, 4591, 4592, 4595, 4594
3084, 4613, 2563, 2564, 4616, 4592, 2556, 2557, 4595
3085, 2494, 4614, 4617, 2495, 2487, 4593, 4596, 2488
3086, 4614, 4615, 4618, 4617, 4593, 4594, 4597, 4596
3087, 4615, 4616, 4619, 4618, 4594, 4595, 4598, 4597
3088, 4616, 2564, 2565, 4619, 4595, 2557, 2558, 4598
3089, 2495, 4617, 4620, 2496, 2488, 4596, 4599, 2489
3090, 4617, 4618, 4621, 4620, 4596, 4597, 4600, 4599
3091, 4618, 4619, 4622, 4621, 4597, 4598, 4601, 4600
3092, 4619, 2565, 2566, 4622, 4598, 2558, 2559, 4601
3093, 2496, 4620, 4623, 2497, 2489, 4599, 4602, 2490
3094, 4620, 4621, 4624, 4623, 4599, 4600, 4603, 4602
3095, 4621, 4622, 4625, 4624, 4600, 4601, 4604, 4603
3096, 4622, 2566, 2567, 4625, 4601, 2559, 2560, 4604
3097, 2497, 4623, 4626, 2498, 2490, 4602, 4605, 2491
3098, 4623, 4624, 4627, 4626, 4602, 4603, 4606, 4605
3099, 4624, 4625, 4628, 4627, 4603, 4604, 4607, 4606
3100, 4625, 2567, 2568, 4628, 4604, 2560, 2561, 4607
3101, 2498, 4626, 2616,  581, 2491, 4605, 2613,  580
3102, 4626, 4627, 2617, 2616, 4605, 4606, 2614, 2613
3103, 4627, 4628, 2618, 2617, 4606, 4607, 2615, 2614
3104, 4628, 2568,  592, 2618, 4607, 2561,  593, 2615
3105,  545, 2428, 4629, 2499,  544, 2425, 4608, 2492
3106, 2428, 2429, 4630, 4629, 2425, 2426, 4609, 4608
3107, 2429, 2430, 4631, 4630, 2426, 2427, 4610, 4609
3108, 2430,  554, 2569, 4631, 2427,  555, 2562, 4610
3109, 2499, 4629, 4632, 2500, 2492, 4608, 4611, 2493
3110, 4629, 4630, 4633, 4632, 4608, 4609, 4612, 4611
3111, 4630, 4631, 4634, 4633, 4609, 4610, 4613, 4612
3112, 4631, 2569, 2570, 4634, 4610, 2562, 2563, 4613
3113, 2500, 4632, 4635, 2501, 2493, 4611, 4614, 2494
3114, 4632, 4633, 4636, 4635, 4611, 4612, 4615, 4614
3115, 4633, 4634, 4637, 4636, 4612, 4613, 4616, 4615
3116, 4634, 2570, 2571, 4637, 4613, 2563, 2564, 4616
3117, 2501, 4635, 4638, 2502, 2494, 4614, 4617, 2495
3118, 4635, 4636, 4639, 4638, 4614, 4615, 4618, 4617
3119, 4636, 4637, 4640, 4639, 4615, 4616, 4619, 4618
3120, 4637, 2571, 2572, 4640, 4616, 2564, 2565, 4619
3121, 2502, 4638, 4641, 2503, 2495, 4617, 4620, 2496
3122, 4638, 4639, 4642, 4641, 4617, 4618, 4621, 4620
3123, 4639, 4640, 4643, 4642, 4618, 4619, 4622, 4621
3124, 4640, 2572, 2573, 4643, 4619, 2565, 2566, 4622
3125, 2503, 4641, 4644, 2504, 2496, 4620, 4623, 2497
3126, 4641, 4642, 4645, 4644, 4620, 4621, 4624, 4623
3127, 4642, 4643, 4646, 4645, 4621, 4622, 4625, 4624
3128, 4643, 2573, 2574, 4646, 4622, 2566, 2567, 4625
3129, 2504, 4644, 4647, 2505, 2497, 4623, 4626, 2498
3130, 4644, 4645, 4648, 4647, 4623, 4624, 4627, 4626
3131, 4645, 4646, 4649, 4648, 4624, 4625, 4628, 4627
3132, 4646, 2574, 2575, 4649, 4625, 2567, 2568, 4628
3133, 2505, 4647, 2619,  582, 2498, 4626, 2616,  581
3134, 4647, 4648, 2620, 2619, 4626, 4627, 2617, 2616
3135, 4648, 4649, 2621, 2620, 4627, 4628, 2618, 2617
3136, 4649, 2575,  591, 2621, 4628, 2568,  592, 2618
3137,  546, 2431, 4650, 2506,  545, 2428, 4629, 2499
3138, 2431, 2432, 4651, 4650, 2428, 2429, 4630, 4629
3139, 2432, 2433, 4652, 4651, 2429, 2430, 4631, 4630
3140, 2433,  553, 2576, 4652, 2430,  554, 2569, 4631
3141, 2506, 4650, 4653, 2507, 2499, 4629, 4632, 2500
3142, 4650, 4651, 4654, 4653, 4629, 4630, 4633, 4632
3143, 4651, 4652, 4655, 4654, 4630, 4631, 4634, 4633
3144, 4652, 2576, 2577, 4655, 4631, 2569, 2570, 4634
3145, 2507, 4653, 4656, 2508, 2500, 4632, 4635, 2501
3146, 4653, 4654, 4657, 4656, 4632, 4633, 4636, 4635
3147, 4654, 4655, 4658, 4657, 4633, 4634, 4637, 4636
3148, 4655, 2577, 2578, 4658, 4634, 2570, 2571, 4637
3149, 2508, 4656, 4659, 2509, 2501, 4635, 4638, 2502
3150, 4656, 4657, 4660, 4659, 4635, 4636, 4639, 4638
3151, 4657, 4658, 4661, 4660, 4636, 4637, 4640, 4639
3152, 4658, 2578, 2579, 4661, 4637, 2571, 2572, 4640
3153, 2509, 4659, 4662, 2510, 2502, 4638, 4641, 2503
3154, 4659, 4660, 4663, 4662, 4638, 4639, 4642, 4641
3155, 4660, 4661, 4664, 4663, 4639, 4640, 4643, 4642
3156, 4661, 2579, 2580, 4664, 4640, 2572, 2573, 4643
3157, 2510, 4662, 4665, 2511, 2503, 4641, 4644, 2504
3158, 4662, 4663, 4666, 4665, 4641, 4642, 4645, 4644
3159, 4663, 4664, 4667, 4666, 4642, 4643, 4646, 4645
3160, 4664, 2580, 2581, 4667, 4643, 2573, 2574, 4646
3161, 2511, 4665, 4668, 2512, 2504, 4644, 4647, 2505
3162, 4665, 4666, 4669, 4668, 4644, 4645, 4648, 4647
3163, 4666, 4667, 4670, 4669, 4645, 4646, 4649, 4648
3164, 4667, 2581, 2582, 4670, 4646, 2574, 2575, 4649
3165, 2512, 4668, 2622,  583, 2505, 4647, 2619,  582
3166, 4668, 4669, 2623, 2622, 4647, 4648, 2620, 2619
3167, 4669, 4670, 2624, 2623, 4648, 4649, 2621, 2620
3168, 4670, 2582,  590, 2624, 4649, 2575,  591, 2621
3169,  547, 2434, 4671, 2513,  546, 2431, 4650, 2506
3170, 2434, 2435, 4672, 4671, 2431, 2432, 4651, 4650
3171, 2435, 2436, 4673, 4672, 2432, 2433, 4652, 4651
3172, 2436,  552, 2583, 4673, 2433,  553, 2576, 4652
3173, 2513, 4671, 4674, 2514, 2506, 4650, 4653, 2507
3174, 4671, 4672, 4675, 4674, 4650, 4651, 4654, 4653
3175, 4672, 4673, 4676, 4675, 4651, 4652, 4655, 4654
3176, 4673, 2583, 2584, 4676, 4652, 2576, 2577, 4655
3177, 2514, 4674, 4677, 2515, 2507, 4653, 4656, 2508
3178, 4674, 4675, 4678, 4677, 4653, 4654, 4657, 4656
3179, 4675, 4676, 4679, 4678, 4654, 4655, 4658, 4657
3180, 4676, 2584, 2585, 4679, 4655, 2577, 2578, 4658
3181, 2515, 4677, 4680, 2516, 2508, 4656, 4659, 2509
3182, 4677, 4678, 4681, 4680, 4656, 4657, 4660, 4659
3183, 4678, 4679, 4682, 4681, 4657, 4658, 4661, 4660
3184, 4679, 2585, 2586, 4682, 4658, 2578, 2579, 4661
3185, 2516, 4680, 4683, 2517, 2509, 4659, 4662, 2510
3186, 4680, 4681, 4684, 4683, 4659, 4660, 4663, 4662
3187, 4681, 4682, 4685, 4684, 4660, 4661, 4664, 4663
3188, 4682, 2586, 2587, 4685, 4661, 2579, 2580, 4664
3189, 2517, 4683, 4686, 2518, 2510, 4662, 4665, 2511
3190, 4683, 4684, 4687, 4686, 4662, 4663, 4666, 4665
3191, 4684, 4685, 4688, 4687, 4663, 4664, 4667, 4666
3192, 4685, 2587, 2588, 4688, 4664, 2580, 2581, 4667
3193, 2518, 4686, 4689, 2519, 2511, 4665, 4668, 2512
3194, 4686, 4687, 4690, 4689, 4665, 4666, 4669, 4668
3195, 4687, 4688, 4691, 4690, 4666, 4667, 4670, 4669
3196, 4688, 2588, 2589, 4691, 4667, 2581, 2582, 4670
3197, 2519, 4689, 2625,  584, 2512, 4668, 2622,  583
3198, 4689, 4690, 2626, 2625, 4668, 4669, 2623, 2622
3199, 4690, 4691, 2627, 2626, 4669, 4670, 2624, 2623
3200, 4691, 2589,  589, 2627, 4670, 2582,  590, 2624
3201,  548, 2437, 4692, 2520,  547, 2434, 4671, 2513
3202, 2437, 2438, 4693, 4692, 2434, 2435, 4672, 4671
3203, 2438, 2439, 4694, 4693, 2435, 2436, 4673, 4672
3204, 2439,  551, 2590, 4694, 2436,  552, 2583, 4673
3205, 2520, 4692, 4695, 2521, 2513, 4671, 4674, 2514
3206, 4692, 4693, 4696, 4695, 4671, 4672, 4675, 4674
3207, 4693, 4694, 4697, 4696, 4672, 4673, 4676, 4675
3208, 4694, 2590, 2591, 4697, 4673, 2583, 2584, 4676
3209, 2521, 4695, 4698, 2522, 2514, 4674, 4677, 2515
3210, 4695, 4696, 4699, 4698, 4674, 4675, 4678, 4677
3211, 4696, 4697, 4700, 4699, 4675, 4676, 4679, 4678
3212, 4697, 2591, 2592, 4700, 4676, 2584, 2585, 4679
3213, 2522, 4698, 4701, 2523, 2515, 4677, 4680, 2516
3214, 4698, 4699, 4702, 4701, 4677, 4678, 4681, 4680
3215, 4699, 4700, 4703, 4702, 4678, 4679, 4682, 4681
3216, 4700, 2592, 2593, 4703, 4679, 2585, 2586, 4682
3217, 2523, 4701, 4704, 2524, 2516, 4680, 4683, 2517
3218, 4701, 4702, 4705, 4704, 4680, 4681, 4684, 4683
3219, 4702, 4703, 4706, 4705, 4681, 4682, 4685, 4684
3220, 4703, 2593, 2594, 4706, 4682, 2586, 2587, 4685
3221, 2524, 4704, 4707, 2525, 2517, 4683, 4686, 2518
3222, 4704, 4705, 4708, 4707, 4683, 4684, 4687, 4686
3223, 4705, 4706, 4709, 4708, 4684, 4685, 4688, 4687
3224, 4706, 2594, 2595, 4709, 4685, 2587, 2588, 4688
3225, 2525, 4707, 4710, 2526, 2518, 4686, 4689, 2519
3226, 4707, 4708, 4711, 4710, 4686, 4687, 4690, 4689
3227, 4708, 4709, 4712, 4711, 4687, 4688, 4691, 4690
3228, 4709, 2595, 2596, 4712, 4688, 2588, 2589, 4691
3229, 2526, 4710, 2628,  585, 2519, 4689, 2625,  584
3230, 4710, 4711, 2629, 2628, 4689, 4690, 2626, 2625
3231, 4711, 4712, 2630, 2629, 4690, 4691, 2627, 2626
3232, 4712, 2596,  588, 2630, 4691, 2589,  589, 2627
3233,  549, 2440, 4713, 2527,  548, 2437, 4692, 2520
3234, 2440, 2441, 4714, 4713, 2437, 2438, 4693, 4692
3235, 2441, 2442, 4715, 4714, 2438, 2439, 4694, 4693
3236, 2442,  550, 2597, 4715, 2439,  551, 2590, 4694
3237, 2527, 4713, 4716, 2528, 2520, 4692, 4695, 2521
3238, 4713, 4714, 4717, 4716, 4692, 4693, 4696, 4695
3239, 4714, 4715, 4718, 4717, 4693, 4694, 4697, 4696
3240, 4715, 2597, 2598, 4718, 4694, 2590, 2591, 4697
3241, 2528, 4716, 4719, 2529, 2521, 4695, 4698, 2522
3242, 4716, 4717, 4720, 4719, 4695, 4696, 4699, 4698
3243, 4717, 4718, 4721, 4720, 4696, 4697, 4700, 4699
3244, 4718, 2598, 2599, 4721, 4697, 2591, 2592, 4700
3245, 2529, 4719, 4722, 2530, 2522, 4698, 4701, 2523
3246, 4719, 4720, 4723, 4722, 4698, 4699, 4702, 4701
3247, 4720, 4721, 4724, 4723, 4699, 4700, 4703, 4702
3248, 4721, 2599, 2600, 4724, 4700, 2592, 2593, 4703
3249, 2530, 4722, 4725, 2531, 2523, 4701, 4704, 2524
3250, 4722, 4723, 4726, 4725, 4701, 4702, 4705, 4704
3251, 4723, 4724, 4727, 4726, 4702, 4703, 4706, 4705
3252, 4724, 2600, 2601, 4727, 4703, 2593, 2594, 4706
3253, 2531, 4725, 4728, 2532, 2524, 4704, 4707, 2525
3254, 4725, 4726, 4729, 4728, 4704, 4705, 4708, 4707
3255, 4726, 4727, 4730, 4729, 4705, 4706, 4709, 4708
3256, 4727, 2601, 2602, 4730, 4706, 2594, 2595, 4709
3257, 2532, 4728, 4731, 2533, 2525, 4707, 4710, 2526
3258, 4728, 4729, 4732, 4731, 4707, 4708, 4711, 4710
3259, 4729, 4730, 4733, 4732, 4708, 4709, 4712, 4711
3260, 4730, 2602, 2603, 4733, 4709, 2595, 2596, 4712
3261, 2533, 4731, 2631,  586, 2526, 4710, 2628,  585
3262, 4731, 4732, 2632, 2631, 4710, 4711, 2629, 2628
3263, 4732, 4733, 2633, 2632, 4711, 4712, 2630, 2629
3264, 4733, 2603,  587, 2633, 4712, 2596,  588, 2630
3265,   24,  301, 1439,  310,  549, 2440, 4713, 2527
3266,  301,  302, 1438, 1439, 2440, 2441, 4714, 4713
3267,  302,  303, 1437, 1438, 2441, 2442, 4715, 4714
3268,  303,   16,  314, 1437, 2442,  550, 2597, 4715
3269,  310, 1439, 1442,  309, 2527, 4713, 4716, 2528
3270, 1439, 1438, 1441, 1442, 4713, 4714, 4717, 4716
3271, 1438, 1437, 1440, 1441, 4714, 4715, 4718, 4717
3272, 1437,  314,  315, 1440, 4715, 2597, 2598, 4718
3273,  309, 1442, 1445,  308, 2528, 4716, 4719, 2529
3274, 1442, 1441, 1444, 1445, 4716, 4717, 4720, 4719
3275, 1441, 1440, 1443, 1444, 4717, 4718, 4721, 4720
3276, 1440,  315,  316, 1443, 4718, 2598, 2599, 4721
3277,  308, 1445, 1448,  307, 2529, 4719, 4722, 2530
3278, 1445, 1444, 1447, 1448, 4719, 4720, 4723, 4722
3279, 1444, 1443, 1446, 1447, 4720, 4721, 4724, 4723
3280, 1443,  316,  317, 1446, 4721, 2599, 2600, 4724
3281,  307, 1448, 1451,  306, 2530, 4722, 4725, 2531
3282, 1448, 1447, 1450, 1451, 4722, 4723, 4726, 4725
3283, 1447, 1446, 1449, 1450, 4723, 4724, 4727, 4726
3284, 1446,  317,  318, 1449, 4724, 2600, 2601, 4727
3285,  306, 1451, 1454,  305, 2531, 4725, 4728, 2532
3286, 1451, 1450, 1453, 1454, 4725, 4726, 4729, 4728
3287, 1450, 1449, 1452, 1453, 4726, 4727, 4730, 4729
3288, 1449,  318,  319, 1452, 4727, 2601, 2602, 4730
3289,  305, 1454, 1457,  304, 2532, 4728, 4731, 2533
3290, 1454, 1453, 1456, 1457, 4728, 4729, 4732, 4731
3291, 1453, 1452, 1455, 1456, 4729, 4730, 4733, 4732
3292, 1452,  319,  320, 1455, 4730, 2602, 2603, 4733
3293,  304, 1457,  313,   25, 2533, 4731, 2631,  586
3294, 1457, 1456,  312,  313, 4731, 4732, 2632, 2631
3295, 1456, 1455,  311,  312, 4732, 4733, 2633, 2632
3296, 1455,  320,   26,  311, 4733, 2603,  587, 2633
3297,  644, 2753, 4734, 2704,   45,  597, 2634,  613
3298, 2753, 2754, 4735, 4734,  597,  598, 2635, 2634
3299, 2754, 2755, 4736, 4735,  598,  599, 2636, 2635
3300, 2755, 2756, 4737, 4736,  599,  600, 2637, 2636
3301, 2756, 2757, 4738, 4737,  600,  601, 2638, 2637
3302, 2757,   66,  659, 4738,  601,    4,   65, 2638
3303, 2704, 4734, 4739, 2705,  613, 2634, 2639,  612
3304, 4734, 4735, 4740, 4739, 2634, 2635, 2640, 2639
3305, 4735, 4736, 4741, 4740, 2635, 2636, 2641, 2640
3306, 4736, 4737, 4742, 4741, 2636, 2637, 2642, 2641
3307, 4737, 4738, 4743, 4742, 2637, 2638, 2643, 2642
3308, 4738,  659,  660, 4743, 2638,   65,   64, 2643
3309, 2705, 4739, 4744, 2706,  612, 2639, 2644,  611
3310, 4739, 4740, 4745, 4744, 2639, 2640, 2645, 2644
3311, 4740, 4741, 4746, 4745, 2640, 2641, 2646, 2645
3312, 4741, 4742, 4747, 4746, 2641, 2642, 2647, 2646
3313, 4742, 4743, 4748, 4747, 2642, 2643, 2648, 2647
3314, 4743,  660,  661, 4748, 2643,   64,   63, 2648
3315, 2706, 4744, 4749, 2707,  611, 2644, 2649,  610
3316, 4744, 4745, 4750, 4749, 2644, 2645, 2650, 2649
3317, 4745, 4746, 4751, 4750, 2645, 2646, 2651, 2650
3318, 4746, 4747, 4752, 4751, 2646, 2647, 2652, 2651
3319, 4747, 4748, 4753, 4752, 2647, 2648, 2653, 2652
3320, 4748,  661,  662, 4753, 2648,   63,   62, 2653
3321, 2707, 4749, 4754, 2708,  610, 2649, 2654,  609
3322, 4749, 4750, 4755, 4754, 2649, 2650, 2655, 2654
3323, 4750, 4751, 4756, 4755, 2650, 2651, 2656, 2655
3324, 4751, 4752, 4757, 4756, 2651, 2652, 2657, 2656
3325, 4752, 4753, 4758, 4757, 2652, 2653, 2658, 2657
3326, 4753,  662,  663, 4758, 2653,   62,   61, 2658
3327, 2708, 4754, 4759, 2709,  609, 2654, 2659,  608
3328, 4754, 4755, 4760, 4759, 2654, 2655, 2660, 2659
3329, 4755, 4756, 4761, 4760, 2655, 2656, 2661, 2660
3330, 4756, 4757, 4762, 4761, 2656, 2657, 2662, 2661
3331, 4757, 4758, 4763, 4762, 2657, 2658, 2663, 2662
3332, 4758,  663,  664, 4763, 2658,   61,   60, 2663
3333, 2709, 4759, 4764, 2710,  608, 2659, 2664,  607
3334, 4759, 4760, 4765, 4764, 2659, 2660, 2665, 2664
3335, 4760, 4761, 4766, 4765, 2660, 2661, 2666, 2665
3336, 4761, 4762, 4767, 4766, 2661, 2662, 2667, 2666
3337, 4762, 4763, 4768, 4767, 2662, 2663, 2668, 2667
3338, 4763,  664,  665, 4768, 2663,   60,   59, 2668
3339, 2710, 4764, 2788,  631,  607, 2664,  606,   46
3340, 4764, 4765, 2789, 2788, 2664, 2665,  605,  606
3341, 4765, 4766, 2790, 2789, 2665, 2666,  604,  605
3342, 4766, 4767, 2791, 2790, 2666, 2667,  603,  604
3343, 4767, 4768, 2792, 2791, 2667, 2668,  602,  603
3344, 4768,  665,   58, 2792, 2668,   59,    3,  602
3345,  643, 2758, 4769, 2711,  644, 2753, 4734, 2704
3346, 2758, 2759, 4770, 4769, 2753, 2754, 4735, 4734
3347, 2759, 2760, 4771, 4770, 2754, 2755, 4736, 4735
3348, 2760, 2761, 4772, 4771, 2755, 2756, 4737, 4736
3349, 2761, 2762, 4773, 4772, 2756, 2757, 4738, 4737
3350, 2762,   67,  652, 4773, 2757,   66,  659, 4738
3351, 2711, 4769, 4774, 2712, 2704, 4734, 4739, 2705
3352, 4769, 4770, 4775, 4774, 4734, 4735, 4740, 4739
3353, 4770, 4771, 4776, 4775, 4735, 4736, 4741, 4740
3354, 4771, 4772, 4777, 4776, 4736, 4737, 4742, 4741
3355, 4772, 4773, 4778, 4777, 4737, 4738, 4743, 4742
3356, 4773,  652,  653, 4778, 4738,  659,  660, 4743
3357, 2712, 4774, 4779, 2713, 2705, 4739, 4744, 2706
3358, 4774, 4775, 4780, 4779, 4739, 4740, 4745, 4744
3359, 4775, 4776, 4781, 4780, 4740, 4741, 4746, 4745
3360, 4776, 4777, 4782, 4781, 4741, 4742, 4747, 4746
3361, 4777, 4778, 4783, 4782, 4742, 4743, 4748, 4747
3362, 4778,  653,  654, 4783, 4743,  660,  661, 4748
3363, 2713, 4779, 4784, 2714, 2706, 4744, 4749, 2707
3364, 4779, 4780, 4785, 4784, 4744, 4745, 4750, 4749
3365, 4780, 4781, 4786, 4785, 4745, 4746, 4751, 4750
3366, 4781, 4782, 4787, 4786, 4746, 4747, 4752, 4751
3367, 4782, 4783, 4788, 4787, 4747, 4748, 4753, 4752
3368, 4783,  654,  655, 4788, 4748,  661,  662, 4753
3369, 2714, 4784, 4789, 2715, 2707, 4749, 4754, 2708
3370, 4784, 4785, 4790, 4789, 4749, 4750, 4755, 4754
3371, 4785, 4786, 4791, 4790, 4750, 4751, 4756, 4755
3372, 4786, 4787, 4792, 4791, 4751, 4752, 4757, 4756
3373, 4787, 4788, 4793, 4792, 4752, 4753, 4758, 4757
3374, 4788,  655,  656, 4793, 4753,  662,  663, 4758
3375, 2715, 4789, 4794, 2716, 2708, 4754, 4759, 2709
3376, 4789, 4790, 4795, 4794, 4754, 4755, 4760, 4759
3377, 4790, 4791, 4796, 4795, 4755, 4756, 4761, 4760
3378, 4791, 4792, 4797, 4796, 4756, 4757, 4762, 4761
3379, 4792, 4793, 4798, 4797, 4757, 4758, 4763, 4762
3380, 4793,  656,  657, 4798, 4758,  663,  664, 4763
3381, 2716, 4794, 4799, 2717, 2709, 4759, 4764, 2710
3382, 4794, 4795, 4800, 4799, 4759, 4760, 4765, 4764
3383, 4795, 4796, 4801, 4800, 4760, 4761, 4766, 4765
3384, 4796, 4797, 4802, 4801, 4761, 4762, 4767, 4766
3385, 4797, 4798, 4803, 4802, 4762, 4763, 4768, 4767
3386, 4798,  657,  658, 4803, 4763,  664,  665, 4768
3387, 2717, 4799, 2793,  632, 2710, 4764, 2788,  631
3388, 4799, 4800, 2794, 2793, 4764, 4765, 2789, 2788
3389, 4800, 4801, 2795, 2794, 4765, 4766, 2790, 2789
3390, 4801, 4802, 2796, 2795, 4766, 4767, 2791, 2790
3391, 4802, 4803, 2797, 2796, 4767, 4768, 2792, 2791
3392, 4803,  658,   57, 2797, 4768,  665,   58, 2792
3393,  642, 2763, 4804, 2718,  643, 2758, 4769, 2711
3394, 2763, 2764, 4805, 4804, 2758, 2759, 4770, 4769
3395, 2764, 2765, 4806, 4805, 2759, 2760, 4771, 4770
3396, 2765, 2766, 4807, 4806, 2760, 2761, 4772, 4771
3397, 2766, 2767, 4808, 4807, 2761, 2762, 4773, 4772
3398, 2767,   68,  645, 4808, 2762,   67,  652, 4773
3399, 2718, 4804, 4809, 2719, 2711, 4769, 4774, 2712
3400, 4804, 4805, 4810, 4809, 4769, 4770, 4775, 4774
3401, 4805, 4806, 4811, 4810, 4770, 4771, 4776, 4775
3402, 4806, 4807, 4812, 4811, 4771, 4772, 4777, 4776
3403, 4807, 4808, 4813, 4812, 4772, 4773, 4778, 4777
3404, 4808,  645,  646, 4813, 4773,  652,  653, 4778
3405, 2719, 4809, 4814, 2720, 2712, 4774, 4779, 2713
3406, 4809, 4810, 4815, 4814, 4774, 4775, 4780, 4779
3407, 4810, 4811, 4816, 4815, 4775, 4776, 4781, 4780
3408, 4811, 4812, 4817, 4816, 4776, 4777, 4782, 4781
3409, 4812, 4813, 4818, 4817, 4777, 4778, 4783, 4782
3410, 4813,  646,  647, 4818, 4778,  653,  654, 4783
3411, 2720, 4814, 4819, 2721, 2713, 4779, 4784, 2714
3412, 4814, 4815, 4820, 4819, 4779, 4780, 4785, 4784
3413, 4815, 4816, 4821, 4820, 4780, 4781, 4786, 4785
3414, 4816, 4817, 4822, 4821, 4781, 4782, 4787, 4786
3415, 4817, 4818, 4823, 4822, 4782, 4783, 4788, 4787
3416, 4818,  647,  648, 4823, 4783,  654,  655, 4788
3417, 2721, 4819, 4824, 2722, 2714, 4784, 4789, 2715
3418, 4819, 4820, 4825, 4824, 4784, 4785, 4790, 4789
3419, 4820, 4821, 4826, 4825, 4785, 4786, 4791, 4790
3420, 4821, 4822, 4827, 4826, 4786, 4787, 4792, 4791
3421, 4822, 4823, 4828, 4827, 4787, 4788, 4793, 4792
3422, 4823,  648,  649, 4828, 4788,  655,  656, 4793
3423, 2722, 4824, 4829, 2723, 2715, 4789, 4794, 2716
3424, 4824, 4825, 4830, 4829, 4789, 4790, 4795, 4794
3425, 4825, 4826, 4831, 4830, 4790, 4791, 4796, 4795
3426, 4826, 4827, 4832, 4831, 4791, 4792, 4797, 4796
3427, 4827, 4828, 4833, 4832, 4792, 4793, 4798, 4797
3428, 4828,  649,  650, 4833, 4793,  656,  657, 4798
3429, 2723, 4829, 4834, 2724, 2716, 4794, 4799, 2717
3430, 4829, 4830, 4835, 4834, 4794, 4795, 4800, 4799
3431, 4830, 4831, 4836, 4835, 4795, 4796, 4801, 4800
3432, 4831, 4832, 4837, 4836, 4796, 4797, 4802, 4801
3433, 4832, 4833, 4838, 4837, 4797, 4798, 4803, 4802
3434, 4833,  650,  651, 4838, 4798,  657,  658, 4803
3435, 2724, 4834, 2798,  633, 2717, 4799, 2793,  632
3436, 4834, 4835, 2799, 2798, 4799, 4800, 2794, 2793
3437, 4835, 4836, 2800, 2799, 4800, 4801, 2795, 2794
3438, 4836, 4837, 2801, 2800, 4801, 4802, 2796, 2795
3439, 4837, 4838, 2802, 2801, 4802, 4803, 2797, 2796
3440, 4838,  651,   56, 2802, 4803,  658,   57, 2797
3441,  641, 2768, 4839, 2725,  642, 2763, 4804, 2718
3442, 2768, 2769, 4840, 4839, 2763, 2764, 4805, 4804
3443, 2769, 2770, 4841, 4840, 2764, 2765, 4806, 4805
3444, 2770, 2771, 4842, 4841, 2765, 2766, 4807, 4806
3445, 2771, 2772, 4843, 4842, 2766, 2767, 4808, 4807
3446, 2772,    1,   49, 4843, 2767,   68,  645, 4808
3447, 2725, 4839, 4844, 2726, 2718, 4804, 4809, 2719
3448, 4839, 4840, 4845, 4844, 4804, 4805, 4810, 4809
3449, 4840, 4841, 4846, 4845, 4805, 4806, 4811, 4810
3450, 4841, 4842, 4847, 4846, 4806, 4807, 4812, 4811
3451, 4842, 4843, 4848, 4847, 4807, 4808, 4813, 4812
3452, 4843,   49,   50, 4848, 4808,  645,  646, 4813
3453, 2726, 4844, 4849, 2727, 2719, 4809, 4814, 2720
3454, 4844, 4845, 4850, 4849, 4809, 4810, 4815, 4814
3455, 4845, 4846, 4851, 4850, 4810, 4811, 4816, 4815
3456, 4846, 4847, 4852, 4851, 4811, 4812, 4817, 4816
3457, 4847, 4848, 4853, 4852, 4812, 4813, 4818, 4817
3458, 4848,   50,   51, 4853, 4813,  646,  647, 4818
3459, 2727, 4849, 4854, 2728, 2720, 4814, 4819, 2721
3460, 4849, 4850, 4855, 4854, 4814, 4815, 4820, 4819
3461, 4850, 4851, 4856, 4855, 4815, 4816, 4821, 4820
3462, 4851, 4852, 4857, 4856, 4816, 4817, 4822, 4821
3463, 4852, 4853, 4858, 4857, 4817, 4818, 4823, 4822
3464, 4853,   51,   52, 4858, 4818,  647,  648, 4823
3465, 2728, 4854, 4859, 2729, 2721, 4819, 4824, 2722
3466, 4854, 4855, 4860, 4859, 4819, 4820, 4825, 4824
3467, 4855, 4856, 4861, 4860, 4820, 4821, 4826, 4825
3468, 4856, 4857, 4862, 4861, 4821, 4822, 4827, 4826
3469, 4857, 4858, 4863, 4862, 4822, 4823, 4828, 4827
3470, 4858,   52,   53, 4863, 4823,  648,  649, 4828
3471, 2729, 4859, 4864, 2730, 2722, 4824, 4829, 2723
3472, 4859, 4860, 4865, 4864, 4824, 4825, 4830, 4829
3473, 4860, 4861, 4866, 4865, 4825, 4826, 4831, 4830
3474, 4861, 4862, 4867, 4866, 4826, 4827, 4832, 4831
3475, 4862, 4863, 4868, 4867, 4827, 4828, 4833, 4832
3476, 4863,   53,   54, 4868, 4828,  649,  650, 4833
3477, 2730, 4864, 4869, 2731, 2723, 4829, 4834, 2724
3478, 4864, 4865, 4870, 4869, 4829, 4830, 4835, 4834
3479, 4865, 4866, 4871, 4870, 4830, 4831, 4836, 4835
3480, 4866, 4867, 4872, 4871, 4831, 4832, 4837, 4836
3481, 4867, 4868, 4873, 4872, 4832, 4833, 4838, 4837
3482, 4868,   54,   55, 4873, 4833,  650,  651, 4838
3483, 2731, 4869, 2803,  634, 2724, 4834, 2798,  633
3484, 4869, 4870, 2804, 2803, 4834, 4835, 2799, 2798
3485, 4870, 4871, 2805, 2804, 4835, 4836, 2800, 2799
3486, 4871, 4872, 2806, 2805, 4836, 4837, 2801, 2800
3487, 4872, 4873, 2807, 2806, 4837, 4838, 2802, 2801
3488, 4873,   55,    2, 2807, 4838,  651,   56, 2802
3489,  640, 2773, 4874, 2732,  641, 2768, 4839, 2725
3490, 2773, 2774, 4875, 4874, 2768, 2769, 4840, 4839
3491, 2774, 2775, 4876, 4875, 2769, 2770, 4841, 4840
3492, 2775, 2776, 4877, 4876, 2770, 2771, 4842, 4841
3493, 2776, 2777, 4878, 4877, 2771, 2772, 4843, 4842
3494, 2777,  136,  866, 4878, 2772,    1,   49, 4843
3495, 2732, 4874, 4879, 2733, 2725, 4839, 4844, 2726
3496, 4874, 4875, 4880, 4879, 4839, 4840, 4845, 4844
3497, 4875, 4876, 4881, 4880, 4840, 4841, 4846, 4845
3498, 4876, 4877, 4882, 4881, 4841, 4842, 4847, 4846
3499, 4877, 4878, 4883, 4882, 4842, 4843, 4848, 4847
3500, 4878,  866,  867, 4883, 4843,   49,   50, 4848
3501, 2733, 4879, 4884, 2734, 2726, 4844, 4849, 2727
3502, 4879, 4880, 4885, 4884, 4844, 4845, 4850, 4849
3503, 4880, 4881, 4886, 4885, 4845, 4846, 4851, 4850
3504, 4881, 4882, 4887, 4886, 4846, 4847, 4852, 4851
3505, 4882, 4883, 4888, 4887, 4847, 4848, 4853, 4852
3506, 4883,  867,  868, 4888, 4848,   50,   51, 4853
3507, 2734, 4884, 4889, 2735, 2727, 4849, 4854, 2728
3508, 4884, 4885, 4890, 4889, 4849, 4850, 4855, 4854
3509, 4885, 4886, 4891, 4890, 4850, 4851, 4856, 4855
3510, 4886, 4887, 4892, 4891, 4851, 4852, 4857, 4856
3511, 4887, 4888, 4893, 4892, 4852, 4853, 4858, 4857
3512, 4888,  868,  869, 4893, 4853,   51,   52, 4858
3513, 2735, 4889, 4894, 2736, 2728, 4854, 4859, 2729
3514, 4889, 4890, 4895, 4894, 4854, 4855, 4860, 4859
3515, 4890, 4891, 4896, 4895, 4855, 4856, 4861, 4860
3516, 4891, 4892, 4897, 4896, 4856, 4857, 4862, 4861
3517, 4892, 4893, 4898, 4897, 4857, 4858, 4863, 4862
3518, 4893,  869,  870, 4898, 4858,   52,   53, 4863
3519, 2736, 4894, 4899, 2737, 2729, 4859, 4864, 2730
3520, 4894, 4895, 4900, 4899, 4859, 4860, 4865, 4864
3521, 4895, 4896, 4901, 4900, 4860, 4861, 4866, 4865
3522, 4896, 4897, 4902, 4901, 4861, 4862, 4867, 4866
3523, 4897, 4898, 4903, 4902, 4862, 4863, 4868, 4867
3524, 4898,  870,  871, 4903, 4863,   53,   54, 4868
3525, 2737, 4899, 4904, 2738, 2730, 4864, 4869, 2731
3526, 4899, 4900, 4905, 4904, 4864, 4865, 4870, 4869
3527, 4900, 4901, 4906, 4905, 4865, 4866, 4871, 4870
3528, 4901, 4902, 4907, 4906, 4866, 4867, 4872, 4871
3529, 4902, 4903, 4908, 4907, 4867, 4868, 4873, 4872
3530, 4903,  871,  872, 4908, 4868,   54,   55, 4873
3531, 2738, 4904, 2808,  635, 2731, 4869, 2803,  634
3532, 4904, 4905, 2809, 2808, 4869, 4870, 2804, 2803
3533, 4905, 4906, 2810, 2809, 4870, 4871, 2805, 2804
3534, 4906, 4907, 2811, 2810, 4871, 4872, 2806, 2805
3535, 4907, 4908, 2812, 2811, 4872, 4873, 2807, 2806
3536, 4908,  872,  144, 2812, 4873,   55,    2, 2807
3537,  639, 2778, 4909, 2739,  640, 2773, 4874, 2732
3538, 2778, 2779, 4910, 4909, 2773, 2774, 4875, 4874
3539, 2779, 2780, 4911, 4910, 2774, 2775, 4876, 4875
3540, 2780, 2781, 4912, 4911, 2775, 2776, 4877, 4876
3541, 2781, 2782, 4913, 4912, 2776, 2777, 4878, 4877
3542, 2782,  137,  859, 4913, 2777,  136,  866, 4878
3543, 2739, 4909, 4914, 2740, 2732, 4874, 4879, 2733
3544, 4909, 4910, 4915, 4914, 4874, 4875, 4880, 4879
3545, 4910, 4911, 4916, 4915, 4875, 4876, 4881, 4880
3546, 4911, 4912, 4917, 4916, 4876, 4877, 4882, 4881
3547, 4912, 4913, 4918, 4917, 4877, 4878, 4883, 4882
3548, 4913,  859,  860, 4918, 4878,  866,  867, 4883
3549, 2740, 4914, 4919, 2741, 2733, 4879, 4884, 2734
3550, 4914, 4915, 4920, 4919, 4879, 4880, 4885, 4884
3551, 4915, 4916, 4921, 4920, 4880, 4881, 4886, 4885
3552, 4916, 4917, 4922, 4921, 4881, 4882, 4887, 4886
3553, 4917, 4918, 4923, 4922, 4882, 4883, 4888, 4887
3554, 4918,  860,  861, 4923, 4883,  867,  868, 4888
3555, 2741, 4919, 4924, 2742, 2734, 4884, 4889, 2735
3556, 4919, 4920, 4925, 4924, 4884, 4885, 4890, 4889
3557, 4920, 4921, 4926, 4925, 4885, 4886, 4891, 4890
3558, 4921, 4922, 4927, 4926, 4886, 4887, 4892, 4891
3559, 4922, 4923, 4928, 4927, 4887, 4888, 4893, 4892
3560, 4923,  861,  862, 4928, 4888,  868,  869, 4893
3561, 2742, 4924, 4929, 2743, 2735, 4889, 4894, 2736
3562, 4924, 4925, 4930, 4929, 4889, 4890, 4895, 4894
3563, 4925, 4926, 4931, 4930, 4890, 4891, 4896, 4895
3564, 4926, 4927, 4932, 4931, 4891, 4892, 4897, 4896
3565, 4927, 4928, 4933, 4932, 4892, 4893, 4898, 4897
3566, 4928,  862,  863, 4933, 4893,  869,  870, 4898
3567, 2743, 4929, 4934, 2744, 2736, 4894, 4899, 2737
3568, 4929, 4930, 4935, 4934, 4894, 4895, 4900, 4899
3569, 4930, 4931, 4936, 4935, 4895, 4896, 4901, 4900
3570, 4931, 4932, 4937, 4936, 4896, 4897, 4902, 4901
3571, 4932, 4933, 4938, 4937, 4897, 4898, 4903, 4902
3572, 4933,  863,  864, 4938, 4898,  870,  871, 4903
3573, 2744, 4934, 4939, 2745, 2737, 4899, 4904, 2738
3574, 4934, 4935, 4940, 4939, 4899, 4900, 4905, 4904
3575, 4935, 4936, 4941, 4940, 4900, 4901, 4906, 4905
3576, 4936, 4937, 4942, 4941, 4901, 4902, 4907, 4906
3577, 4937, 4938, 4943, 4942, 4902, 4903, 4908, 4907
3578, 4938,  864,  865, 4943, 4903,  871,  872, 4908
3579, 2745, 4939, 2813,  636, 2738, 4904, 2808,  635
3580, 4939, 4940, 2814, 2813, 4904, 4905, 2809, 2808
3581, 4940, 4941, 2815, 2814, 4905, 4906, 2810, 2809
3582, 4941, 4942, 2816, 2815, 4906, 4907, 2811, 2810
3583, 4942, 4943, 2817, 2816, 4907, 4908, 2812, 2811
3584, 4943,  865,  143, 2817, 4908,  872,  144, 2812
3585,  638, 2783, 4944, 2746,  639, 2778, 4909, 2739
3586, 2783, 2784, 4945, 4944, 2778, 2779, 4910, 4909
3587, 2784, 2785, 4946, 4945, 2779, 2780, 4911, 4910
3588, 2785, 2786, 4947, 4946, 2780, 2781, 4912, 4911
3589, 2786, 2787, 4948, 4947, 2781, 2782, 4913, 4912
3590, 2787,  138,  852, 4948, 2782,  137,  859, 4913
3591, 2746, 4944, 4949, 2747, 2739, 4909, 4914, 2740
3592, 4944, 4945, 4950, 4949, 4909, 4910, 4915, 4914
3593, 4945, 4946, 4951, 4950, 4910, 4911, 4916, 4915
3594, 4946, 4947, 4952, 4951, 4911, 4912, 4917, 4916
3595, 4947, 4948, 4953, 4952, 4912, 4913, 4918, 4917
3596, 4948,  852,  853, 4953, 4913,  859,  860, 4918
3597, 2747, 4949, 4954, 2748, 2740, 4914, 4919, 2741
3598, 4949, 4950, 4955, 4954, 4914, 4915, 4920, 4919
3599, 4950, 4951, 4956, 4955, 4915, 4916, 4921, 4920
3600, 4951, 4952, 4957, 4956, 4916, 4917, 4922, 4921
3601, 4952, 4953, 4958, 4957, 4917, 4918, 4923, 4922
3602, 4953,  853,  854, 4958, 4918,  860,  861, 4923
3603, 2748, 4954, 4959, 2749, 2741, 4919, 4924, 2742
3604, 4954, 4955, 4960, 4959, 4919, 4920, 4925, 4924
3605, 4955, 4956, 4961, 4960, 4920, 4921, 4926, 4925
3606, 4956, 4957, 4962, 4961, 4921, 4922, 4927, 4926
3607, 4957, 4958, 4963, 4962, 4922, 4923, 4928, 4927
3608, 4958,  854,  855, 4963, 4923,  861,  862, 4928
3609, 2749, 4959, 4964, 2750, 2742, 4924, 4929, 2743
3610, 4959, 4960, 4965, 4964, 4924, 4925, 4930, 4929
3611, 4960, 4961, 4966, 4965, 4925, 4926, 4931, 4930
3612, 4961, 4962, 4967, 4966, 4926, 4927, 4932, 4931
3613, 4962, 4963, 4968, 4967, 4927, 4928, 4933, 4932
3614, 4963,  855,  856, 4968, 4928,  862,  863, 4933
3615, 2750, 4964, 4969, 2751, 2743, 4929, 4934, 2744
3616, 4964, 4965, 4970, 4969, 4929, 4930, 4935, 4934
3617, 4965, 4966, 4971, 4970, 4930, 4931, 4936, 4935
3618, 4966, 4967, 4972, 4971, 4931, 4932, 4937, 4936
3619, 4967, 4968, 4973, 4972, 4932, 4933, 4938, 4937
3620, 4968,  856,  857, 4973, 4933,  863,  864, 4938
3621, 2751, 4969, 4974, 2752, 2744, 4934, 4939, 2745
3622, 4969, 4970, 4975, 4974, 4934, 4935, 4940, 4939
3623, 4970, 4971, 4976, 4975, 4935, 4936, 4941, 4940
3624, 4971, 4972, 4977, 4976, 4936, 4937, 4942, 4941
3625, 4972, 4973, 4978, 4977, 4937, 4938, 4943, 4942
3626, 4973,  857,  858, 4978, 4938,  864,  865, 4943
3627, 2752, 4974, 2818,  637, 2745, 4939, 2813,  636
3628, 4974, 4975, 2819, 2818, 4939, 4940, 2814, 2813
3629, 4975, 4976, 2820, 2819, 4940, 4941, 2815, 2814
3630, 4976, 4977, 2821, 2820, 4941, 4942, 2816, 2815
3631, 4977, 4978, 2822, 2821, 4942, 4943, 2817, 2816
3632, 4978,  858,  142, 2822, 4943,  865,  143, 2817
3633,   48,  618, 2669,  624,  638, 2783, 4944, 2746
3634,  618,  617, 2670, 2669, 2783, 2784, 4945, 4944
3635,  617,  616, 2671, 2670, 2784, 2785, 4946, 4945
3636,  616,  615, 2672, 2671, 2785, 2786, 4947, 4946
3637,  615,  614, 2673, 2672, 2786, 2787, 4948, 4947
3638,  614,    9,  109, 2673, 2787,  138,  852, 4948
3639,  624, 2669, 2674,  625, 2746, 4944, 4949, 2747
3640, 2669, 2670, 2675, 2674, 4944, 4945, 4950, 4949
3641, 2670, 2671, 2676, 2675, 4945, 4946, 4951, 4950
3642, 2671, 2672, 2677, 2676, 4946, 4947, 4952, 4951
3643, 2672, 2673, 2678, 2677, 4947, 4948, 4953, 4952
3644, 2673,  109,  110, 2678, 4948,  852,  853, 4953
3645,  625, 2674, 2679,  626, 2747, 4949, 4954, 2748
3646, 2674, 2675, 2680, 2679, 4949, 4950, 4955, 4954
3647, 2675, 2676, 2681, 2680, 4950, 4951, 4956, 4955
3648, 2676, 2677, 2682, 2681, 4951, 4952, 4957, 4956
3649, 2677, 2678, 2683, 2682, 4952, 4953, 4958, 4957
3650, 2678,  110,  111, 2683, 4953,  853,  854, 4958
3651,  626, 2679, 2684,  627, 2748, 4954, 4959, 2749
3652, 2679, 2680, 2685, 2684, 4954, 4955, 4960, 4959
3653, 2680, 2681, 2686, 2685, 4955, 4956, 4961, 4960
3654, 2681, 2682, 2687, 2686, 4956, 4957, 4962, 4961
3655, 2682, 2683, 2688, 2687, 4957, 4958, 4963, 4962
3656, 2683,  111,  112, 2688, 4958,  854,  855, 4963
3657,  627, 2684, 2689,  628, 2749, 4959, 4964, 2750
3658, 2684, 2685, 2690, 2689, 4959, 4960, 4965, 4964
3659, 2685, 2686, 2691, 2690, 4960, 4961, 4966, 4965
3660, 2686, 2687, 2692, 2691, 4961, 4962, 4967, 4966
3661, 2687, 2688, 2693, 2692, 4962, 4963, 4968, 4967
3662, 2688,  112,  113, 2693, 4963,  855,  856, 4968
3663,  628, 2689, 2694,  629, 2750, 4964, 4969, 2751
3664, 2689, 2690, 2695, 2694, 4964, 4965, 4970, 4969
3665, 2690, 2691, 2696, 2695, 4965, 4966, 4971, 4970
3666, 2691, 2692, 2697, 2696, 4966, 4967, 4972, 4971
3667, 2692, 2693, 2698, 2697, 4967, 4968, 4973, 4972
3668, 2693,  113,  114, 2698, 4968,  856,  857, 4973
3669,  629, 2694, 2699,  630, 2751, 4969, 4974, 2752
3670, 2694, 2695, 2700, 2699, 4969, 4970, 4975, 4974
3671, 2695, 2696, 2701, 2700, 4970, 4971, 4976, 4975
3672, 2696, 2697, 2702, 2701, 4971, 4972, 4977, 4976
3673, 2697, 2698, 2703, 2702, 4972, 4973, 4978, 4977
3674, 2698,  114,  115, 2703, 4973,  857,  858, 4978
3675,  630, 2699,  619,   47, 2752, 4974, 2818,  637
3676, 2699, 2700,  620,  619, 4974, 4975, 2819, 2818
3677, 2700, 2701,  621,  620, 4975, 4976, 2820, 2819
3678, 2701, 2702,  622,  621, 4976, 4977, 2821, 2820
3679, 2702, 2703,  623,  622, 4977, 4978, 2822, 2821
3680, 2703,  115,   10,  623, 4978,  858,  142, 2822
*Nset, nset=All, generate
    1,  4978,     1
*Elset, elset=All, generate
    1,  3680,     1
** Section: Plastic
*Solid Section, elset=All, controls=EC-1, material=Duracon
1.,
*End Part
**  
*Part, name=Holder
*Node
      1,          -2.,           0.,        -4.25
      2,          -2.,          -2.,        -4.25
      3,          -2.,           0.,        -2.25
      4,           0.,          -2.,        -4.25
      5,           0.,           0.,        -4.25
      6,           0.,           0.,        -2.25
      7,           0.,          -2.,         4.25
      8,           0.,           0.,         4.25
      9,           0.,           0.,           6.
     10,           0.,          -2.,           6.
     11,          -2.,           0.,         4.25
     12,          -2.,           0.,           6.
     13,          -2.,          -2.,           6.
     14,          -2.,          -2.,         4.25
     15,          -2.,           0.,         2.25
     16,           0.,           0.,         2.25
     17,          -2.,           0.,          -6.
     18,           0.,           0.,          -6.
     19,           0.,           5.,          -6.
     20,           0.,           5.,           6.
     21,          -2.,           5.,           6.
     22,          -2.,           5.,          -6.
     23,           0.,          -2.,          -6.
     24,          -2.,          -2.,          -6.
     25,          -2.,           0.,        -2.75
     26,          -2.,           0.,        -3.25
     27,          -2.,           0.,        -3.75
     28,          -2.,         -0.5,        -4.25
     29,          -2.,          -1.,        -4.25
     30,          -2.,         -1.5,        -4.25
     31,         -0.5,           0.,        -4.25
     32,          -1.,           0.,        -4.25
     33,         -1.5,           0.,        -4.25
     34,          -2.,  -1.93185163,  -3.73236179
     35,          -2.,  -1.73205078,        -3.25
     36,          -2.,  -1.41421354,  -2.83578634
     37,          -2.,          -1.,   -2.5179491
     38,          -2., -0.517638087,  -2.31814837
     39,         -1.5,          -2.,        -4.25
     40,          -1.,          -2.,        -4.25
     41,         -0.5,          -2.,        -4.25
     42,         -0.5,           0.,        -2.25
     43,          -1.,           0.,        -2.25
     44,         -1.5,           0.,        -2.25
     45,           0.,         -1.5,        -4.25
     46,           0.,          -1.,        -4.25
     47,           0.,         -0.5,        -4.25
     48,           0.,  -1.93185163,  -3.73236179
     49,           0.,  -1.73205078,        -3.25
     50,           0.,  -1.41421354,  -2.83578634
     51,           0.,          -1.,   -2.5179491
     52,           0., -0.517638087,  -2.31814837
     53,           0.,           0.,        -3.75
     54,           0.,           0.,        -3.25
     55,           0.,           0.,        -2.75
     56,           0.,         -1.5,         4.25
     57,           0.,          -1.,         4.25
     58,           0.,         -0.5,         4.25
     59,           0.,           0.,   4.83333349
     60,           0.,           0.,   5.41666651
     61,           0.,         -0.5,           6.
     62,           0.,          -1.,           6.
     63,           0.,         -1.5,           6.
     64,           0.,          -2.,   5.41666651
     65,           0.,          -2.,   4.83333349
     66,          -2.,         -0.5,         4.25
     67,          -2.,          -1.,         4.25
     68,          -2.,         -1.5,         4.25
     69,          -2.,           0.,   5.41666651
     70,          -2.,           0.,   4.83333349
     71,          -2.,         -1.5,           6.
     72,          -2.,          -1.,           6.
     73,          -2.,         -0.5,           6.
     74,          -2.,          -2.,   4.83333349
     75,          -2.,          -2.,   5.41666651
     76,         -0.5,          -2.,           6.
     77,          -1.,          -2.,           6.
     78,         -1.5,          -2.,           6.
     79,         -1.5,          -2.,         4.25
     80,          -1.,          -2.,         4.25
     81,         -0.5,          -2.,         4.25
     82,         -0.5,           0.,           6.
     83,          -1.,           0.,           6.
     84,         -1.5,           0.,           6.
     85,         -1.5,           0.,         4.25
     86,          -1.,           0.,         4.25
     87,         -0.5,           0.,         4.25
     88,          -2., -0.517638087,   2.31814837
     89,          -2.,          -1.,    2.5179491
     90,          -2.,  -1.41421354,   2.83578634
     91,          -2.,  -1.73205078,         3.25
     92,          -2.,  -1.93185163,   3.73236179
     93,          -2.,           0.,         3.75
     94,          -2.,           0.,         3.25
     95,          -2.,           0.,         2.75
     96,         -1.5,           0.,         2.25
     97,          -1.,           0.,         2.25
     98,         -0.5,           0.,         2.25
     99,           0.,  -1.93185163,   3.73236179
    100,           0.,  -1.73205078,         3.25
    101,           0.,  -1.41421354,   2.83578634
    102,           0.,          -1.,    2.5179491
    103,           0., -0.517638087,   2.31814837
    104,           0.,           0.,         2.75
    105,           0.,           0.,         3.25
    106,           0.,           0.,         3.75
    107,         -1.5,           0.,          -6.
    108,          -1.,           0.,          -6.
    109,         -0.5,           0.,          -6.
    110,           0.,           0.,  -5.41666651
    111,           0.,           0.,  -4.83333349
    112,          -2.,           0.,  -4.83333349
    113,          -2.,           0.,  -5.41666651
    114,           0.,           0.,  -1.79999995
    115,           0.,           0.,  -1.35000002
    116,           0.,           0., -0.899999976
    117,           0.,           0., -0.449999988
    118,           0.,           0.,           0.
    119,           0.,           0.,  0.449999988
    120,           0.,           0.,  0.899999976
    121,           0.,           0.,   1.35000002
    122,           0.,           0.,   1.79999995
    123,          -2.,           0.,   1.79999995
    124,          -2.,           0.,   1.35000002
    125,          -2.,           0.,  0.899999976
    126,          -2.,           0.,  0.449999988
    127,          -2.,           0.,           0.
    128,          -2.,           0., -0.449999988
    129,          -2.,           0., -0.899999976
    130,          -2.,           0.,  -1.35000002
    131,          -2.,           0.,  -1.79999995
    132,         -0.5,           5.,          -6.
    133,          -1.,           5.,          -6.
    134,         -1.5,           5.,          -6.
    135,           0.,           5.,          5.5
    136,           0.,           5.,           5.
    137,           0.,           5.,          4.5
    138,           0.,           5.,           4.
    139,           0.,           5.,          3.5
    140,           0.,           5.,           3.
    141,           0.,           5.,          2.5
    142,           0.,           5.,           2.
    143,           0.,           5.,          1.5
    144,           0.,           5.,           1.
    145,           0.,           5.,          0.5
    146,           0.,           5.,           0.
    147,           0.,           5.,         -0.5
    148,           0.,           5.,          -1.
    149,           0.,           5.,         -1.5
    150,           0.,           5.,          -2.
    151,           0.,           5.,         -2.5
    152,           0.,           5.,          -3.
    153,           0.,           5.,         -3.5
    154,           0.,           5.,          -4.
    155,           0.,           5.,         -4.5
    156,           0.,           5.,          -5.
    157,           0.,           5.,         -5.5
    158,         -1.5,           5.,           6.
    159,          -1.,           5.,           6.
    160,         -0.5,           5.,           6.
    161,          -2.,           5.,         -5.5
    162,          -2.,           5.,          -5.
    163,          -2.,           5.,         -4.5
    164,          -2.,           5.,          -4.
    165,          -2.,           5.,         -3.5
    166,          -2.,           5.,          -3.
    167,          -2.,           5.,         -2.5
    168,          -2.,           5.,          -2.
    169,          -2.,           5.,         -1.5
    170,          -2.,           5.,          -1.
    171,          -2.,           5.,         -0.5
    172,          -2.,           5.,           0.
    173,          -2.,           5.,          0.5
    174,          -2.,           5.,           1.
    175,          -2.,           5.,          1.5
    176,          -2.,           5.,           2.
    177,          -2.,           5.,          2.5
    178,          -2.,           5.,           3.
    179,          -2.,           5.,          3.5
    180,          -2.,           5.,           4.
    181,          -2.,           5.,          4.5
    182,          -2.,           5.,           5.
    183,          -2.,           5.,          5.5
    184,          -2.,          0.5,           6.
    185,          -2.,           1.,           6.
    186,          -2.,          1.5,           6.
    187,          -2.,           2.,           6.
    188,          -2.,          2.5,           6.
    189,          -2.,           3.,           6.
    190,          -2.,          3.5,           6.
    191,          -2.,           4.,           6.
    192,          -2.,          4.5,           6.
    193,          -2.,          4.5,          -6.
    194,          -2.,           4.,          -6.
    195,          -2.,          3.5,          -6.
    196,          -2.,           3.,          -6.
    197,          -2.,          2.5,          -6.
    198,          -2.,           2.,          -6.
    199,          -2.,          1.5,          -6.
    200,          -2.,           1.,          -6.
    201,          -2.,          0.5,          -6.
    202,           0.,          4.5,           6.
    203,           0.,           4.,           6.
    204,           0.,          3.5,           6.
    205,           0.,           3.,           6.
    206,           0.,          2.5,           6.
    207,           0.,           2.,           6.
    208,           0.,          1.5,           6.
    209,           0.,           1.,           6.
    210,           0.,          0.5,           6.
    211,           0.,          0.5,          -6.
    212,           0.,           1.,          -6.
    213,           0.,          1.5,          -6.
    214,           0.,           2.,          -6.
    215,           0.,          2.5,          -6.
    216,           0.,           3.,          -6.
    217,           0.,          3.5,          -6.
    218,           0.,           4.,          -6.
    219,           0.,          4.5,          -6.
    220,           0.,         -0.5,          -6.
    221,           0.,          -1.,          -6.
    222,           0.,         -1.5,          -6.
    223,         -0.5,          -2.,          -6.
    224,          -1.,          -2.,          -6.
    225,         -1.5,          -2.,          -6.
    226,          -2.,         -1.5,          -6.
    227,          -2.,          -1.,          -6.
    228,          -2.,         -0.5,          -6.
    229,          -2.,          -2.,  -5.41666651
    230,          -2.,          -2.,  -4.83333349
    231,           0.,          -2.,  -4.83333349
    232,           0.,          -2.,  -5.41666651
    233,          -2.,  -0.47649169,    -2.811239
    234,          -2., -0.481652677,  -3.28986382
    235,          -2., -0.492488027,  -3.77083874
    236,          -2., -0.917926431,  -2.93036342
    237,          -2., -0.936366081,  -3.34518051
    238,          -2., -0.968322098,  -3.78793335
    239,          -2.,  -1.22990859,  -3.04438472
    240,          -2.,   -1.3356899,   -3.3563199
    241,          -2.,  -1.43396592,  -3.78165364
    242,         -1.5,         -0.5,        -4.25
    243,         -1.5,          -1.,        -4.25
    244,         -1.5,         -1.5,        -4.25
    245,          -1.,         -0.5,        -4.25
    246,          -1.,          -1.,        -4.25
    247,          -1.,         -1.5,        -4.25
    248,         -0.5,         -1.5,        -4.25
    249,         -0.5,         -0.5,        -4.25
    250,         -0.5,          -1.,        -4.25
    251,         -1.5,           0.,        -2.75
    252,         -1.5,           0.,        -3.25
    253,         -1.5,           0.,        -3.75
    254,          -1.,           0.,        -2.75
    255,          -1.,           0.,        -3.25
    256,          -1.,           0.,        -3.75
    257,         -0.5,           0.,        -3.75
    258,         -0.5,           0.,        -3.25
    259,         -0.5,           0.,        -2.75
    260,         -1.5,  -1.93183303,  -3.73229241
    261,         -1.5,  -1.73211384,   -3.2501092
    262,         -1.5,  -1.41418481,  -2.83575773
    263,          -1.,  -1.93186569,  -3.73241448
    264,          -1.,  -1.73210919,  -3.25010133
    265,          -1.,   -1.4141252,  -2.83569813
    266,         -1.5, -0.999928772,   -2.5179081
    267,         -1.5, -0.517757416,  -2.31818032
    268,          -1.,  -1.00001752,  -2.51795936
    269,          -1., -0.517742336,  -2.31817627
    270,         -0.5,  -1.93187368,  -3.73244429
    271,         -0.5,  -1.73207617,  -3.25004387
    272,         -0.5,   -1.4141494,  -2.83572221
    273,         -0.5,  -1.00004709,  -2.51797628
    274,         -0.5, -0.517677248,  -2.31815886
    275,           0.,  -1.43818688,  -3.77408242
    276,           0.,  -1.31855035,  -3.33371115
    277,           0.,  -1.20758259,  -3.02493596
    278,           0., -0.487456083,  -3.75784874
    279,           0., -0.958107293,  -3.77147913
    280,           0., -0.462553442,   -3.2760911
    281,           0., -0.907298744,  -3.32164788
    282,           0.,  -0.46754384,  -2.81238747
    283,           0., -0.895606279,  -2.91922998
    284,           0.,         -1.5,   4.83333349
    285,           0.,          -1.,   4.83333349
    286,           0.,         -0.5,   4.83333349
    287,           0.,         -1.5,   5.41666651
    288,           0.,          -1.,   5.41666651
    289,           0.,         -0.5,   5.41666651
    290,          -2.,         -1.5,   4.83333349
    291,          -2.,          -1.,   4.83333349
    292,          -2.,         -0.5,   4.83333349
    293,          -2.,         -1.5,   5.41666651
    294,          -2.,          -1.,   5.41666651
    295,          -2.,         -0.5,   5.41666651
    296,         -0.5,          -2.,   4.83333349
    297,         -0.5,          -2.,   5.41666651
    298,          -1.,          -2.,   4.83333349
    299,          -1.,          -2.,   5.41666651
    300,         -1.5,          -2.,   4.83333349
    301,         -1.5,          -2.,   5.41666651
    302,         -0.5,           0.,   4.83333349
    303,         -0.5,           0.,   5.41666651
    304,          -1.,           0.,   4.83333349
    305,          -1.,           0.,   5.41666651
    306,         -1.5,           0.,   4.83333349
    307,         -1.5,           0.,   5.41666651
    308,         -0.5,         -1.5,         4.25
    309,         -0.5,          -1.,         4.25
    310,         -0.5,         -0.5,         4.25
    311,          -1.,         -1.5,         4.25
    312,          -1.,          -1.,         4.25
    313,          -1.,         -0.5,         4.25
    314,         -1.5,         -1.5,         4.25
    315,         -1.5,          -1.,         4.25
    316,         -1.5,         -0.5,         4.25
    317,         -0.5,         -1.5,           6.
    318,         -0.5,          -1.,           6.
    319,         -0.5,         -0.5,           6.
    320,          -1.,         -1.5,           6.
    321,          -1.,          -1.,           6.
    322,          -1.,         -0.5,           6.
    323,         -1.5,         -1.5,           6.
    324,         -1.5,          -1.,           6.
    325,         -1.5,         -0.5,           6.
    326,          -2.,  -1.21879148,   3.02799153
    327,          -2.,   -1.3281461,   3.33787775
    328,          -2.,  -1.43464625,   3.77127981
    329,          -2., -0.959419668,   3.76771975
    330,          -2., -0.479060113,   3.75733733
    331,          -2., -0.908375144,   3.31643581
    332,          -2., -0.463332117,   3.28271174
    333,          -2., -0.898264945,   2.91736245
    334,          -2., -0.469808817,    2.8170557
    335,         -1.5,  -1.41421354,   2.83578634
    336,         -1.5,  -1.73208678,   3.25006223
    337,         -1.5,  -1.93181896,    3.7322402
    338,          -1.,  -1.41421354,   2.83578634
    339,          -1.,   -1.7320236,   3.24995279
    340,          -1.,  -1.93182135,   3.73224854
    341,         -1.5, -0.517707348,   2.31816697
    342,         -1.5, -0.999890625,   2.51788616
    343,          -1., -0.517585754,   2.31813431
    344,          -1., -0.999898493,   2.51789069
    345,         -0.5,  -1.93186259,    3.7324028
    346,         -0.5,  -1.73204935,   3.24999738
    347,         -0.5,  -1.41416228,   2.83573508
    348,         -0.5, -0.517555356,    2.3181262
    349,         -0.5, -0.999940217,   2.51791477
    350,         -1.5,           0.,         3.75
    351,         -1.5,           0.,         3.25
    352,         -1.5,           0.,         2.75
    353,          -1.,           0.,         3.75
    354,          -1.,           0.,         3.25
    355,          -1.,           0.,         2.75
    356,         -0.5,           0.,         3.75
    357,         -0.5,           0.,         3.25
    358,         -0.5,           0.,         2.75
    359,           0.,  -1.43876112,   3.77350807
    360,           0.,   -1.3196367,   3.33207369
    361,           0.,  -1.20561552,    3.0200913
    362,           0., -0.960136414,   3.76834726
    363,           0., -0.479161263,   3.75751185
    364,           0., -0.904819548,   3.31363392
    365,           0.,  -0.46206665,   3.28167796
    366,           0., -0.893680215,   2.91430998
    367,           0., -0.468346238,   2.81603408
    368,         -1.5,           0.,  -5.41666651
    369,          -1.,           0.,  -5.41666651
    370,         -0.5,           0.,  -5.41666651
    371,         -1.5,           0.,  -4.83333349
    372,          -1.,           0.,  -4.83333349
    373,         -0.5,           0.,  -4.83333349
    374,         -0.5,           0.,  -1.79999995
    375,         -0.5,           0.,  -1.35000002
    376,         -0.5,           0., -0.899999976
    377,         -0.5,           0., -0.449999988
    378,         -0.5,           0.,           0.
    379,         -0.5,           0.,  0.449999988
    380,         -0.5,           0.,  0.899999976
    381,         -0.5,           0.,   1.35000002
    382,         -0.5,           0.,   1.79999995
    383,          -1.,           0.,  -1.79999995
    384,          -1.,           0.,  -1.35000002
    385,          -1.,           0., -0.899999976
    386,          -1.,           0., -0.449999988
    387,          -1.,           0.,           0.
    388,          -1.,           0.,  0.449999988
    389,          -1.,           0.,  0.899999976
    390,          -1.,           0.,   1.35000002
    391,          -1.,           0.,   1.79999995
    392,         -1.5,           0.,  -1.79999995
    393,         -1.5,           0.,  -1.35000002
    394,         -1.5,           0., -0.899999976
    395,         -1.5,           0., -0.449999988
    396,         -1.5,           0.,           0.
    397,         -1.5,           0.,  0.449999988
    398,         -1.5,           0.,  0.899999976
    399,         -1.5,           0.,   1.35000002
    400,         -1.5,           0.,   1.79999995
    401,         -1.5,           5.,         -5.5
    402,          -1.,           5.,         -5.5
    403,         -0.5,           5.,         -5.5
    404,         -1.5,           5.,          -5.
    405,          -1.,           5.,          -5.
    406,         -0.5,           5.,          -5.
    407,         -1.5,           5.,         -4.5
    408,          -1.,           5.,         -4.5
    409,         -0.5,           5.,         -4.5
    410,         -1.5,           5.,          -4.
    411,          -1.,           5.,          -4.
    412,         -0.5,           5.,          -4.
    413,         -1.5,           5.,         -3.5
    414,          -1.,           5.,         -3.5
    415,         -0.5,           5.,         -3.5
    416,         -1.5,           5.,          -3.
    417,          -1.,           5.,          -3.
    418,         -0.5,           5.,          -3.
    419,         -1.5,           5.,         -2.5
    420,          -1.,           5.,         -2.5
    421,         -0.5,           5.,         -2.5
    422,         -1.5,           5.,          -2.
    423,          -1.,           5.,          -2.
    424,         -0.5,           5.,          -2.
    425,         -1.5,           5.,         -1.5
    426,          -1.,           5.,         -1.5
    427,         -0.5,           5.,         -1.5
    428,         -1.5,           5.,          -1.
    429,          -1.,           5.,          -1.
    430,         -0.5,           5.,          -1.
    431,         -1.5,           5.,         -0.5
    432,          -1.,           5.,         -0.5
    433,         -0.5,           5.,         -0.5
    434,         -1.5,           5.,           0.
    435,          -1.,           5.,           0.
    436,         -0.5,           5.,           0.
    437,         -1.5,           5.,          0.5
    438,          -1.,           5.,          0.5
    439,         -0.5,           5.,          0.5
    440,         -1.5,           5.,           1.
    441,          -1.,           5.,           1.
    442,         -0.5,           5.,           1.
    443,         -1.5,           5.,          1.5
    444,          -1.,           5.,          1.5
    445,         -0.5,           5.,          1.5
    446,         -1.5,           5.,           2.
    447,          -1.,           5.,           2.
    448,         -0.5,           5.,           2.
    449,         -1.5,           5.,          2.5
    450,          -1.,           5.,          2.5
    451,         -0.5,           5.,          2.5
    452,         -1.5,           5.,           3.
    453,          -1.,           5.,           3.
    454,         -0.5,           5.,           3.
    455,         -1.5,           5.,          3.5
    456,          -1.,           5.,          3.5
    457,         -0.5,           5.,          3.5
    458,         -1.5,           5.,           4.
    459,          -1.,           5.,           4.
    460,         -0.5,           5.,           4.
    461,         -1.5,           5.,          4.5
    462,          -1.,           5.,          4.5
    463,         -0.5,           5.,          4.5
    464,         -1.5,           5.,           5.
    465,          -1.,           5.,           5.
    466,         -0.5,           5.,           5.
    467,         -1.5,           5.,          5.5
    468,          -1.,           5.,          5.5
    469,         -0.5,           5.,          5.5
    470,          -2.,          0.5,  -5.42500019
    471,          -2.,          0.5,   -4.8499999
    472,          -2.,          0.5,   -4.2750001
    473,          -2.,          0.5,   -3.7750001
    474,          -2.,          0.5,   -3.2750001
    475,          -2.,          0.5,   -2.7750001
    476,          -2.,          0.5,   -2.2750001
    477,          -2.,          0.5,  -1.82000005
    478,          -2.,          0.5,  -1.36500001
    479,          -2.,          0.5, -0.910000026
    480,          -2.,          0.5, -0.455000013
    481,          -2.,          0.5,           0.
    482,          -2.,          0.5,  0.455000013
    483,          -2.,          0.5,  0.910000026
    484,          -2.,          0.5,   1.36500001
    485,          -2.,          0.5,   1.82000005
    486,          -2.,          0.5,    2.2750001
    487,          -2.,          0.5,    2.7750001
    488,          -2.,          0.5,    3.2750001
    489,          -2.,          0.5,    3.7750001
    490,          -2.,          0.5,    4.2750001
    491,          -2.,          0.5,    4.8499999
    492,          -2.,          0.5,   5.42500019
    493,          -2.,           1.,   -5.4333334
    494,          -2.,           1.,  -4.86666679
    495,          -2.,           1.,  -4.30000019
    496,          -2.,           1.,  -3.79999995
    497,          -2.,           1.,  -3.29999995
    498,          -2.,           1.,  -2.79999995
    499,          -2.,           1.,  -2.29999995
    500,          -2.,           1.,  -1.84000003
    501,          -2.,           1.,        -1.38
    502,          -2.,           1., -0.920000017
    503,          -2.,           1., -0.460000008
    504,          -2.,           1.,           0.
    505,          -2.,           1.,  0.460000008
    506,          -2.,           1.,  0.920000017
    507,          -2.,           1.,         1.38
    508,          -2.,           1.,   1.84000003
    509,          -2.,           1.,   2.29999995
    510,          -2.,           1.,   2.79999995
    511,          -2.,           1.,   3.29999995
    512,          -2.,           1.,   3.79999995
    513,          -2.,           1.,   4.30000019
    514,          -2.,           1.,   4.86666679
    515,          -2.,           1.,    5.4333334
    516,          -2.,          1.5,   -5.4416666
    517,          -2.,          1.5,  -4.88333321
    518,          -2.,          1.5,  -4.32499981
    519,          -2.,          1.5,  -3.82500005
    520,          -2.,          1.5,  -3.32500005
    521,          -2.,          1.5,  -2.82500005
    522,          -2.,          1.5,  -2.32500005
    523,          -2.,          1.5,  -1.86000001
    524,          -2.,          1.5,  -1.39499998
    525,          -2.,          1.5, -0.930000007
    526,          -2.,          1.5, -0.465000004
    527,          -2.,          1.5,           0.
    528,          -2.,          1.5,  0.465000004
    529,          -2.,          1.5,  0.930000007
    530,          -2.,          1.5,   1.39499998
    531,          -2.,          1.5,   1.86000001
    532,          -2.,          1.5,   2.32500005
    533,          -2.,          1.5,   2.82500005
    534,          -2.,          1.5,   3.32500005
    535,          -2.,          1.5,   3.82500005
    536,          -2.,          1.5,   4.32499981
    537,          -2.,          1.5,   4.88333321
    538,          -2.,          1.5,    5.4416666
    539,          -2.,           2.,  -5.44999981
    540,          -2.,           2.,   -4.9000001
    541,          -2.,           2.,   -4.3499999
    542,          -2.,           2.,   -3.8499999
    543,          -2.,           2.,   -3.3499999
    544,          -2.,           2.,   -2.8499999
    545,          -2.,           2.,   -2.3499999
    546,          -2.,           2.,        -1.88
    547,          -2.,           2.,  -1.40999997
    548,          -2.,           2., -0.939999998
    549,          -2.,           2., -0.469999999
    550,          -2.,           2.,           0.
    551,          -2.,           2.,  0.469999999
    552,          -2.,           2.,  0.939999998
    553,          -2.,           2.,   1.40999997
    554,          -2.,           2.,         1.88
    555,          -2.,           2.,    2.3499999
    556,          -2.,           2.,    2.8499999
    557,          -2.,           2.,    3.3499999
    558,          -2.,           2.,    3.8499999
    559,          -2.,           2.,    4.3499999
    560,          -2.,           2.,    4.9000001
    561,          -2.,           2.,   5.44999981
    562,          -2.,          2.5,  -5.45833349
    563,          -2.,          2.5,  -4.91666651
    564,          -2.,          2.5,       -4.375
    565,          -2.,          2.5,       -3.875
    566,          -2.,          2.5,       -3.375
    567,          -2.,          2.5,       -2.875
    568,          -2.,          2.5,       -2.375
    569,          -2.,          2.5,  -1.89999998
    570,          -2.,          2.5,  -1.42499995
    571,          -2.,          2.5, -0.949999988
    572,          -2.,          2.5, -0.474999994
    573,          -2.,          2.5,           0.
    574,          -2.,          2.5,  0.474999994
    575,          -2.,          2.5,  0.949999988
    576,          -2.,          2.5,   1.42499995
    577,          -2.,          2.5,   1.89999998
    578,          -2.,          2.5,        2.375
    579,          -2.,          2.5,        2.875
    580,          -2.,          2.5,        3.375
    581,          -2.,          2.5,        3.875
    582,          -2.,          2.5,        4.375
    583,          -2.,          2.5,   4.91666651
    584,          -2.,          2.5,   5.45833349
    585,          -2.,           3.,   -5.4666667
    586,          -2.,           3.,   -4.9333334
    587,          -2.,           3.,   -4.4000001
    588,          -2.,           3.,   -3.9000001
    589,          -2.,           3.,   -3.4000001
    590,          -2.,           3.,   -2.9000001
    591,          -2.,           3.,   -2.4000001
    592,          -2.,           3.,  -1.91999996
    593,          -2.,           3.,  -1.44000006
    594,          -2.,           3., -0.959999979
    595,          -2.,           3., -0.479999989
    596,          -2.,           3.,           0.
    597,          -2.,           3.,  0.479999989
    598,          -2.,           3.,  0.959999979
    599,          -2.,           3.,   1.44000006
    600,          -2.,           3.,   1.91999996
    601,          -2.,           3.,    2.4000001
    602,          -2.,           3.,    2.9000001
    603,          -2.,           3.,    3.4000001
    604,          -2.,           3.,    3.9000001
    605,          -2.,           3.,    4.4000001
    606,          -2.,           3.,    4.9333334
    607,          -2.,           3.,    5.4666667
    608,          -2.,          3.5,   -5.4749999
    609,          -2.,          3.5,  -4.94999981
    610,          -2.,          3.5,  -4.42500019
    611,          -2.,          3.5,  -3.92499995
    612,          -2.,          3.5,  -3.42499995
    613,          -2.,          3.5,  -2.92499995
    614,          -2.,          3.5,  -2.42499995
    615,          -2.,          3.5,  -1.94000006
    616,          -2.,          3.5,  -1.45500004
    617,          -2.,          3.5, -0.970000029
    618,          -2.,          3.5, -0.485000014
    619,          -2.,          3.5,           0.
    620,          -2.,          3.5,  0.485000014
    621,          -2.,          3.5,  0.970000029
    622,          -2.,          3.5,   1.45500004
    623,          -2.,          3.5,   1.94000006
    624,          -2.,          3.5,   2.42499995
    625,          -2.,          3.5,   2.92499995
    626,          -2.,          3.5,   3.42499995
    627,          -2.,          3.5,   3.92499995
    628,          -2.,          3.5,   4.42500019
    629,          -2.,          3.5,   4.94999981
    630,          -2.,          3.5,    5.4749999
    631,          -2.,           4.,  -5.48333311
    632,          -2.,           4.,   -4.9666667
    633,          -2.,           4.,  -4.44999981
    634,          -2.,           4.,  -3.95000005
    635,          -2.,           4.,  -3.45000005
    636,          -2.,           4.,  -2.95000005
    637,          -2.,           4.,  -2.45000005
    638,          -2.,           4.,  -1.96000004
    639,          -2.,           4.,  -1.47000003
    640,          -2.,           4., -0.980000019
    641,          -2.,           4.,  -0.49000001
    642,          -2.,           4.,           0.
    643,          -2.,           4.,   0.49000001
    644,          -2.,           4.,  0.980000019
    645,          -2.,           4.,   1.47000003
    646,          -2.,           4.,   1.96000004
    647,          -2.,           4.,   2.45000005
    648,          -2.,           4.,   2.95000005
    649,          -2.,           4.,   3.45000005
    650,          -2.,           4.,   3.95000005
    651,          -2.,           4.,   4.44999981
    652,          -2.,           4.,    4.9666667
    653,          -2.,           4.,   5.48333311
    654,          -2.,          4.5,  -5.49166679
    655,          -2.,          4.5,  -4.98333311
    656,          -2.,          4.5,   -4.4749999
    657,          -2.,          4.5,   -3.9749999
    658,          -2.,          4.5,   -3.4749999
    659,          -2.,          4.5,   -2.9749999
    660,          -2.,          4.5,   -2.4749999
    661,          -2.,          4.5,  -1.98000002
    662,          -2.,          4.5,  -1.48500001
    663,          -2.,          4.5,  -0.99000001
    664,          -2.,          4.5, -0.495000005
    665,          -2.,          4.5,           0.
    666,          -2.,          4.5,  0.495000005
    667,          -2.,          4.5,   0.99000001
    668,          -2.,          4.5,   1.48500001
    669,          -2.,          4.5,   1.98000002
    670,          -2.,          4.5,    2.4749999
    671,          -2.,          4.5,    2.9749999
    672,          -2.,          4.5,    3.4749999
    673,          -2.,          4.5,    3.9749999
    674,          -2.,          4.5,    4.4749999
    675,          -2.,          4.5,   4.98333311
    676,          -2.,          4.5,   5.49166679
    677,           0.,          0.5,  -5.42500019
    678,           0.,          0.5,   -4.8499999
    679,           0.,          0.5,   -4.2750001
    680,           0.,          0.5,   -3.7750001
    681,           0.,          0.5,   -3.2750001
    682,           0.,          0.5,   -2.7750001
    683,           0.,          0.5,   -2.2750001
    684,           0.,          0.5,  -1.82000005
    685,           0.,          0.5,  -1.36500001
    686,           0.,          0.5, -0.910000026
    687,           0.,          0.5, -0.455000013
    688,           0.,          0.5,           0.
    689,           0.,          0.5,  0.455000013
    690,           0.,          0.5,  0.910000026
    691,           0.,          0.5,   1.36500001
    692,           0.,          0.5,   1.82000005
    693,           0.,          0.5,    2.2750001
    694,           0.,          0.5,    2.7750001
    695,           0.,          0.5,    3.2750001
    696,           0.,          0.5,    3.7750001
    697,           0.,          0.5,    4.2750001
    698,           0.,          0.5,    4.8499999
    699,           0.,          0.5,   5.42500019
    700,           0.,           1.,   -5.4333334
    701,           0.,           1.,  -4.86666679
    702,           0.,           1.,  -4.30000019
    703,           0.,           1.,  -3.79999995
    704,           0.,           1.,  -3.29999995
    705,           0.,           1.,  -2.79999995
    706,           0.,           1.,  -2.29999995
    707,           0.,           1.,  -1.84000003
    708,           0.,           1.,        -1.38
    709,           0.,           1., -0.920000017
    710,           0.,           1., -0.460000008
    711,           0.,           1.,           0.
    712,           0.,           1.,  0.460000008
    713,           0.,           1.,  0.920000017
    714,           0.,           1.,         1.38
    715,           0.,           1.,   1.84000003
    716,           0.,           1.,   2.29999995
    717,           0.,           1.,   2.79999995
    718,           0.,           1.,   3.29999995
    719,           0.,           1.,   3.79999995
    720,           0.,           1.,   4.30000019
    721,           0.,           1.,   4.86666679
    722,           0.,           1.,    5.4333334
    723,           0.,          1.5,   -5.4416666
    724,           0.,          1.5,  -4.88333321
    725,           0.,          1.5,  -4.32499981
    726,           0.,          1.5,  -3.82500005
    727,           0.,          1.5,  -3.32500005
    728,           0.,          1.5,  -2.82500005
    729,           0.,          1.5,  -2.32500005
    730,           0.,          1.5,  -1.86000001
    731,           0.,          1.5,  -1.39499998
    732,           0.,          1.5, -0.930000007
    733,           0.,          1.5, -0.465000004
    734,           0.,          1.5,           0.
    735,           0.,          1.5,  0.465000004
    736,           0.,          1.5,  0.930000007
    737,           0.,          1.5,   1.39499998
    738,           0.,          1.5,   1.86000001
    739,           0.,          1.5,   2.32500005
    740,           0.,          1.5,   2.82500005
    741,           0.,          1.5,   3.32500005
    742,           0.,          1.5,   3.82500005
    743,           0.,          1.5,   4.32499981
    744,           0.,          1.5,   4.88333321
    745,           0.,          1.5,    5.4416666
    746,           0.,           2.,  -5.44999981
    747,           0.,           2.,   -4.9000001
    748,           0.,           2.,   -4.3499999
    749,           0.,           2.,   -3.8499999
    750,           0.,           2.,   -3.3499999
    751,           0.,           2.,   -2.8499999
    752,           0.,           2.,   -2.3499999
    753,           0.,           2.,        -1.88
    754,           0.,           2.,  -1.40999997
    755,           0.,           2., -0.939999998
    756,           0.,           2., -0.469999999
    757,           0.,           2.,           0.
    758,           0.,           2.,  0.469999999
    759,           0.,           2.,  0.939999998
    760,           0.,           2.,   1.40999997
    761,           0.,           2.,         1.88
    762,           0.,           2.,    2.3499999
    763,           0.,           2.,    2.8499999
    764,           0.,           2.,    3.3499999
    765,           0.,           2.,    3.8499999
    766,           0.,           2.,    4.3499999
    767,           0.,           2.,    4.9000001
    768,           0.,           2.,   5.44999981
    769,           0.,          2.5,  -5.45833349
    770,           0.,          2.5,  -4.91666651
    771,           0.,          2.5,       -4.375
    772,           0.,          2.5,       -3.875
    773,           0.,          2.5,       -3.375
    774,           0.,          2.5,       -2.875
    775,           0.,          2.5,       -2.375
    776,           0.,          2.5,  -1.89999998
    777,           0.,          2.5,  -1.42499995
    778,           0.,          2.5, -0.949999988
    779,           0.,          2.5, -0.474999994
    780,           0.,          2.5,           0.
    781,           0.,          2.5,  0.474999994
    782,           0.,          2.5,  0.949999988
    783,           0.,          2.5,   1.42499995
    784,           0.,          2.5,   1.89999998
    785,           0.,          2.5,        2.375
    786,           0.,          2.5,        2.875
    787,           0.,          2.5,        3.375
    788,           0.,          2.5,        3.875
    789,           0.,          2.5,        4.375
    790,           0.,          2.5,   4.91666651
    791,           0.,          2.5,   5.45833349
    792,           0.,           3.,   -5.4666667
    793,           0.,           3.,   -4.9333334
    794,           0.,           3.,   -4.4000001
    795,           0.,           3.,   -3.9000001
    796,           0.,           3.,   -3.4000001
    797,           0.,           3.,   -2.9000001
    798,           0.,           3.,   -2.4000001
    799,           0.,           3.,  -1.91999996
    800,           0.,           3.,  -1.44000006
    801,           0.,           3., -0.959999979
    802,           0.,           3., -0.479999989
    803,           0.,           3.,           0.
    804,           0.,           3.,  0.479999989
    805,           0.,           3.,  0.959999979
    806,           0.,           3.,   1.44000006
    807,           0.,           3.,   1.91999996
    808,           0.,           3.,    2.4000001
    809,           0.,           3.,    2.9000001
    810,           0.,           3.,    3.4000001
    811,           0.,           3.,    3.9000001
    812,           0.,           3.,    4.4000001
    813,           0.,           3.,    4.9333334
    814,           0.,           3.,    5.4666667
    815,           0.,          3.5,   -5.4749999
    816,           0.,          3.5,  -4.94999981
    817,           0.,          3.5,  -4.42500019
    818,           0.,          3.5,  -3.92499995
    819,           0.,          3.5,  -3.42499995
    820,           0.,          3.5,  -2.92499995
    821,           0.,          3.5,  -2.42499995
    822,           0.,          3.5,  -1.94000006
    823,           0.,          3.5,  -1.45500004
    824,           0.,          3.5, -0.970000029
    825,           0.,          3.5, -0.485000014
    826,           0.,          3.5,           0.
    827,           0.,          3.5,  0.485000014
    828,           0.,          3.5,  0.970000029
    829,           0.,          3.5,   1.45500004
    830,           0.,          3.5,   1.94000006
    831,           0.,          3.5,   2.42499995
    832,           0.,          3.5,   2.92499995
    833,           0.,          3.5,   3.42499995
    834,           0.,          3.5,   3.92499995
    835,           0.,          3.5,   4.42500019
    836,           0.,          3.5,   4.94999981
    837,           0.,          3.5,    5.4749999
    838,           0.,           4.,  -5.48333311
    839,           0.,           4.,   -4.9666667
    840,           0.,           4.,  -4.44999981
    841,           0.,           4.,  -3.95000005
    842,           0.,           4.,  -3.45000005
    843,           0.,           4.,  -2.95000005
    844,           0.,           4.,  -2.45000005
    845,           0.,           4.,  -1.96000004
    846,           0.,           4.,  -1.47000003
    847,           0.,           4., -0.980000019
    848,           0.,           4.,  -0.49000001
    849,           0.,           4.,           0.
    850,           0.,           4.,   0.49000001
    851,           0.,           4.,  0.980000019
    852,           0.,           4.,   1.47000003
    853,           0.,           4.,   1.96000004
    854,           0.,           4.,   2.45000005
    855,           0.,           4.,   2.95000005
    856,           0.,           4.,   3.45000005
    857,           0.,           4.,   3.95000005
    858,           0.,           4.,   4.44999981
    859,           0.,           4.,    4.9666667
    860,           0.,           4.,   5.48333311
    861,           0.,          4.5,  -5.49166679
    862,           0.,          4.5,  -4.98333311
    863,           0.,          4.5,   -4.4749999
    864,           0.,          4.5,   -3.9749999
    865,           0.,          4.5,   -3.4749999
    866,           0.,          4.5,   -2.9749999
    867,           0.,          4.5,   -2.4749999
    868,           0.,          4.5,  -1.98000002
    869,           0.,          4.5,  -1.48500001
    870,           0.,          4.5,  -0.99000001
    871,           0.,          4.5, -0.495000005
    872,           0.,          4.5,           0.
    873,           0.,          4.5,  0.495000005
    874,           0.,          4.5,   0.99000001
    875,           0.,          4.5,   1.48500001
    876,           0.,          4.5,   1.98000002
    877,           0.,          4.5,    2.4749999
    878,           0.,          4.5,    2.9749999
    879,           0.,          4.5,    3.4749999
    880,           0.,          4.5,    3.9749999
    881,           0.,          4.5,    4.4749999
    882,           0.,          4.5,   4.98333311
    883,           0.,          4.5,   5.49166679
    884,         -1.5,          0.5,          -6.
    885,          -1.,          0.5,          -6.
    886,         -0.5,          0.5,          -6.
    887,         -1.5,           1.,          -6.
    888,          -1.,           1.,          -6.
    889,         -0.5,           1.,          -6.
    890,         -1.5,          1.5,          -6.
    891,          -1.,          1.5,          -6.
    892,         -0.5,          1.5,          -6.
    893,         -1.5,           2.,          -6.
    894,          -1.,           2.,          -6.
    895,         -0.5,           2.,          -6.
    896,         -1.5,          2.5,          -6.
    897,          -1.,          2.5,          -6.
    898,         -0.5,          2.5,          -6.
    899,         -1.5,           3.,          -6.
    900,          -1.,           3.,          -6.
    901,         -0.5,           3.,          -6.
    902,         -1.5,          3.5,          -6.
    903,          -1.,          3.5,          -6.
    904,         -0.5,          3.5,          -6.
    905,         -1.5,           4.,          -6.
    906,          -1.,           4.,          -6.
    907,         -0.5,           4.,          -6.
    908,         -1.5,          4.5,          -6.
    909,          -1.,          4.5,          -6.
    910,         -0.5,          4.5,          -6.
    911,         -1.5,          0.5,           6.
    912,          -1.,          0.5,           6.
    913,         -0.5,          0.5,           6.
    914,         -1.5,           1.,           6.
    915,          -1.,           1.,           6.
    916,         -0.5,           1.,           6.
    917,         -1.5,          1.5,           6.
    918,          -1.,          1.5,           6.
    919,         -0.5,          1.5,           6.
    920,         -1.5,           2.,           6.
    921,          -1.,           2.,           6.
    922,         -0.5,           2.,           6.
    923,         -1.5,          2.5,           6.
    924,          -1.,          2.5,           6.
    925,         -0.5,          2.5,           6.
    926,         -1.5,           3.,           6.
    927,          -1.,           3.,           6.
    928,         -0.5,           3.,           6.
    929,         -1.5,          3.5,           6.
    930,          -1.,          3.5,           6.
    931,         -0.5,          3.5,           6.
    932,         -1.5,           4.,           6.
    933,          -1.,           4.,           6.
    934,         -0.5,           4.,           6.
    935,         -1.5,          4.5,           6.
    936,          -1.,          4.5,           6.
    937,         -0.5,          4.5,           6.
    938,         -1.5,         -0.5,          -6.
    939,          -1.,         -0.5,          -6.
    940,         -0.5,         -0.5,          -6.
    941,         -1.5,          -1.,          -6.
    942,          -1.,          -1.,          -6.
    943,         -0.5,          -1.,          -6.
    944,         -1.5,         -1.5,          -6.
    945,          -1.,         -1.5,          -6.
    946,         -0.5,         -1.5,          -6.
    947,          -2.,         -0.5,  -5.41666651
    948,          -2.,          -1.,  -5.41666651
    949,          -2.,         -1.5,  -5.41666651
    950,          -2.,         -0.5,  -4.83333349
    951,          -2.,          -1.,  -4.83333349
    952,          -2.,         -1.5,  -4.83333349
    953,           0.,         -0.5,  -5.41666651
    954,           0.,          -1.,  -5.41666651
    955,           0.,         -1.5,  -5.41666651
    956,           0.,         -0.5,  -4.83333349
    957,           0.,          -1.,  -4.83333349
    958,           0.,         -1.5,  -4.83333349
    959,         -1.5,          -2.,  -5.41666651
    960,          -1.,          -2.,  -5.41666651
    961,         -0.5,          -2.,  -5.41666651
    962,         -1.5,          -2.,  -4.83333349
    963,          -1.,          -2.,  -4.83333349
    964,         -0.5,          -2.,  -4.83333349
    965,          -1.,  -1.19827354,  -3.05191898
    966,          -1.,   -1.4310075,  -3.79346848
    967,          -1.,  -1.31801617,  -3.36278319
    968,          -1., -0.885184586,  -2.93247819
    969,          -1., -0.459340066,  -2.81987286
    970,         -1.5,  -1.21190739,  -3.04639888
    971,         -0.5,  -1.20528007,  -3.03989148
    972,          -1., -0.459883571,  -3.29553676
    973,          -1., -0.481048554,  -3.77132726
    974,          -1., -0.907034934,  -3.34526944
    975,          -1., -0.956325471,  -3.78940392
    976,         -1.5, -0.468003392,  -2.81992531
    977,         -1.5, -0.899662673,  -2.93221593
    978,         -1.5,  -1.32426977,  -3.35872936
    979,         -1.5,  -1.43017101,  -3.78438306
    980,         -0.5,  -1.43017578,  -3.78267765
    981,         -0.5,  -1.31821764,  -3.35137391
    982,         -0.5, -0.465005755,   -2.8194387
    983,         -0.5, -0.892721713,  -2.92802501
    984,         -1.5, -0.468192339,  -3.29538655
    985,         -1.5, -0.483613104,  -3.77128482
    986,         -1.5, -0.915912569,  -3.34448981
    987,         -1.5, -0.959057331,  -3.78791595
    988,         -0.5, -0.481261641,  -3.76742959
    989,         -0.5, -0.955179513,  -3.78335404
    990,         -0.5,  -0.46231851,  -3.29127216
    991,         -0.5, -0.907128513,  -3.33682346
    992,         -0.5,         -1.5,   4.83333349
    993,         -0.5,          -1.,   4.83333349
    994,         -0.5,         -0.5,   4.83333349
    995,         -0.5,         -1.5,   5.41666651
    996,         -0.5,          -1.,   5.41666651
    997,         -0.5,         -0.5,   5.41666651
    998,          -1.,         -1.5,   4.83333349
    999,          -1.,          -1.,   4.83333349
   1000,          -1.,         -0.5,   4.83333349
   1001,          -1.,         -1.5,   5.41666651
   1002,          -1.,          -1.,   5.41666651
   1003,          -1.,         -0.5,   5.41666651
   1004,         -1.5,         -1.5,   4.83333349
   1005,         -1.5,          -1.,   4.83333349
   1006,         -1.5,         -0.5,   4.83333349
   1007,         -1.5,         -1.5,   5.41666651
   1008,         -1.5,          -1.,   5.41666651
   1009,         -1.5,         -0.5,   5.41666651
   1010,          -1.,  -1.19776511,   3.05108333
   1011,          -1.,  -1.43000591,    3.7940414
   1012,          -1.,  -1.31759107,    3.3621664
   1013,         -1.5,   -1.2072531,   3.04120851
   1014,          -1., -0.882403195,   2.93103576
   1015,          -1., -0.462870628,   2.82070231
   1016,         -0.5,  -1.20350432,    3.0379796
   1017,         -1.5,  -1.32047284,   3.35268879
   1018,         -1.5,  -1.42915237,   3.78073001
   1019,          -1., -0.953932047,   3.78985715
   1020,          -1., -0.477976084,   3.76856685
   1021,          -1., -0.903074205,   3.34093928
   1022,          -1., -0.460801989,   3.29344273
   1023,         -1.5, -0.892308891,     2.926893
   1024,         -1.5, -0.467229754,   2.82054234
   1025,         -0.5,  -1.43015707,   3.78255868
   1026,         -0.5,  -1.31777859,   3.34997869
   1027,         -0.5, -0.890629828,   2.92554665
   1028,         -0.5,   -0.4666017,   2.82007051
   1029,         -1.5, -0.954425335,   3.78168321
   1030,         -1.5, -0.478690743,   3.76633668
   1031,         -1.5, -0.906556547,   3.33484554
   1032,         -1.5, -0.462768555,   3.29131317
   1033,         -0.5, -0.954526603,   3.78189564
   1034,         -0.5, -0.478645355,   3.76633143
   1035,         -0.5, -0.905172825,   3.33366799
   1036,         -0.5, -0.462214738,   3.29086518
   1037,         -1.5,          0.5,  -5.42500019
   1038,          -1.,          0.5,  -5.42500019
   1039,         -0.5,          0.5,  -5.42500019
   1040,         -1.5,          0.5,   -4.8499999
   1041,          -1.,          0.5,   -4.8499999
   1042,         -0.5,          0.5,   -4.8499999
   1043,         -1.5,          0.5,   -4.2750001
   1044,          -1.,          0.5,   -4.2750001
   1045,         -0.5,          0.5,   -4.2750001
   1046,         -1.5,          0.5,   -3.7750001
   1047,          -1.,          0.5,   -3.7750001
   1048,         -0.5,          0.5,   -3.7750001
   1049,         -1.5,          0.5,   -3.2750001
   1050,          -1.,          0.5,   -3.2750001
   1051,         -0.5,          0.5,   -3.2750001
   1052,         -1.5,          0.5,   -2.7750001
   1053,          -1.,          0.5,   -2.7750001
   1054,         -0.5,          0.5,   -2.7750001
   1055,         -1.5,          0.5,   -2.2750001
   1056,          -1.,          0.5,   -2.2750001
   1057,         -0.5,          0.5,   -2.2750001
   1058,         -1.5,          0.5,  -1.82000005
   1059,          -1.,          0.5,  -1.82000005
   1060,         -0.5,          0.5,  -1.82000005
   1061,         -1.5,          0.5,  -1.36500001
   1062,          -1.,          0.5,  -1.36500001
   1063,         -0.5,          0.5,  -1.36500001
   1064,         -1.5,          0.5, -0.910000026
   1065,          -1.,          0.5, -0.910000026
   1066,         -0.5,          0.5, -0.910000026
   1067,         -1.5,          0.5, -0.455000013
   1068,          -1.,          0.5, -0.455000013
   1069,         -0.5,          0.5, -0.455000013
   1070,         -1.5,          0.5,           0.
   1071,          -1.,          0.5,           0.
   1072,         -0.5,          0.5,           0.
   1073,         -1.5,          0.5,  0.455000013
   1074,          -1.,          0.5,  0.455000013
   1075,         -0.5,          0.5,  0.455000013
   1076,         -1.5,          0.5,  0.910000026
   1077,          -1.,          0.5,  0.910000026
   1078,         -0.5,          0.5,  0.910000026
   1079,         -1.5,          0.5,   1.36500001
   1080,          -1.,          0.5,   1.36500001
   1081,         -0.5,          0.5,   1.36500001
   1082,         -1.5,          0.5,   1.82000005
   1083,          -1.,          0.5,   1.82000005
   1084,         -0.5,          0.5,   1.82000005
   1085,         -1.5,          0.5,    2.2750001
   1086,          -1.,          0.5,    2.2750001
   1087,         -0.5,          0.5,    2.2750001
   1088,         -1.5,          0.5,    2.7750001
   1089,          -1.,          0.5,    2.7750001
   1090,         -0.5,          0.5,    2.7750001
   1091,         -1.5,          0.5,    3.2750001
   1092,          -1.,          0.5,    3.2750001
   1093,         -0.5,          0.5,    3.2750001
   1094,         -1.5,          0.5,    3.7750001
   1095,          -1.,          0.5,    3.7750001
   1096,         -0.5,          0.5,    3.7750001
   1097,         -1.5,          0.5,    4.2750001
   1098,          -1.,          0.5,    4.2750001
   1099,         -0.5,          0.5,    4.2750001
   1100,         -1.5,          0.5,    4.8499999
   1101,          -1.,          0.5,    4.8499999
   1102,         -0.5,          0.5,    4.8499999
   1103,         -1.5,          0.5,   5.42500019
   1104,          -1.,          0.5,   5.42500019
   1105,         -0.5,          0.5,   5.42500019
   1106,         -1.5,           1.,   -5.4333334
   1107,          -1.,           1.,   -5.4333334
   1108,         -0.5,           1.,   -5.4333334
   1109,         -1.5,           1.,  -4.86666679
   1110,          -1.,           1.,  -4.86666679
   1111,         -0.5,           1.,  -4.86666679
   1112,         -1.5,           1.,  -4.30000019
   1113,          -1.,           1.,  -4.30000019
   1114,         -0.5,           1.,  -4.30000019
   1115,         -1.5,           1.,  -3.79999995
   1116,          -1.,           1.,  -3.79999995
   1117,         -0.5,           1.,  -3.79999995
   1118,         -1.5,           1.,  -3.29999995
   1119,          -1.,           1.,  -3.29999995
   1120,         -0.5,           1.,  -3.29999995
   1121,         -1.5,           1.,  -2.79999995
   1122,          -1.,           1.,  -2.79999995
   1123,         -0.5,           1.,  -2.79999995
   1124,         -1.5,           1.,  -2.29999995
   1125,          -1.,           1.,  -2.29999995
   1126,         -0.5,           1.,  -2.29999995
   1127,         -1.5,           1.,  -1.84000003
   1128,          -1.,           1.,  -1.84000003
   1129,         -0.5,           1.,  -1.84000003
   1130,         -1.5,           1.,        -1.38
   1131,          -1.,           1.,        -1.38
   1132,         -0.5,           1.,        -1.38
   1133,         -1.5,           1., -0.920000017
   1134,          -1.,           1., -0.920000017
   1135,         -0.5,           1., -0.920000017
   1136,         -1.5,           1., -0.460000008
   1137,          -1.,           1., -0.460000008
   1138,         -0.5,           1., -0.460000008
   1139,         -1.5,           1.,           0.
   1140,          -1.,           1.,           0.
   1141,         -0.5,           1.,           0.
   1142,         -1.5,           1.,  0.460000008
   1143,          -1.,           1.,  0.460000008
   1144,         -0.5,           1.,  0.460000008
   1145,         -1.5,           1.,  0.920000017
   1146,          -1.,           1.,  0.920000017
   1147,         -0.5,           1.,  0.920000017
   1148,         -1.5,           1.,         1.38
   1149,          -1.,           1.,         1.38
   1150,         -0.5,           1.,         1.38
   1151,         -1.5,           1.,   1.84000003
   1152,          -1.,           1.,   1.84000003
   1153,         -0.5,           1.,   1.84000003
   1154,         -1.5,           1.,   2.29999995
   1155,          -1.,           1.,   2.29999995
   1156,         -0.5,           1.,   2.29999995
   1157,         -1.5,           1.,   2.79999995
   1158,          -1.,           1.,   2.79999995
   1159,         -0.5,           1.,   2.79999995
   1160,         -1.5,           1.,   3.29999995
   1161,          -1.,           1.,   3.29999995
   1162,         -0.5,           1.,   3.29999995
   1163,         -1.5,           1.,   3.79999995
   1164,          -1.,           1.,   3.79999995
   1165,         -0.5,           1.,   3.79999995
   1166,         -1.5,           1.,   4.30000019
   1167,          -1.,           1.,   4.30000019
   1168,         -0.5,           1.,   4.30000019
   1169,         -1.5,           1.,   4.86666679
   1170,          -1.,           1.,   4.86666679
   1171,         -0.5,           1.,   4.86666679
   1172,         -1.5,           1.,    5.4333334
   1173,          -1.,           1.,    5.4333334
   1174,         -0.5,           1.,    5.4333334
   1175,         -1.5,          1.5,   -5.4416666
   1176,          -1.,          1.5,   -5.4416666
   1177,         -0.5,          1.5,   -5.4416666
   1178,         -1.5,          1.5,  -4.88333321
   1179,          -1.,          1.5,  -4.88333321
   1180,         -0.5,          1.5,  -4.88333321
   1181,         -1.5,          1.5,  -4.32499981
   1182,          -1.,          1.5,  -4.32499981
   1183,         -0.5,          1.5,  -4.32499981
   1184,         -1.5,          1.5,  -3.82500005
   1185,          -1.,          1.5,  -3.82500005
   1186,         -0.5,          1.5,  -3.82500005
   1187,         -1.5,          1.5,  -3.32500005
   1188,          -1.,          1.5,  -3.32500005
   1189,         -0.5,          1.5,  -3.32500005
   1190,         -1.5,          1.5,  -2.82500005
   1191,          -1.,          1.5,  -2.82500005
   1192,         -0.5,          1.5,  -2.82500005
   1193,         -1.5,          1.5,  -2.32500005
   1194,          -1.,          1.5,  -2.32500005
   1195,         -0.5,          1.5,  -2.32500005
   1196,         -1.5,          1.5,  -1.86000001
   1197,          -1.,          1.5,  -1.86000001
   1198,         -0.5,          1.5,  -1.86000001
   1199,         -1.5,          1.5,  -1.39499998
   1200,          -1.,          1.5,  -1.39499998
   1201,         -0.5,          1.5,  -1.39499998
   1202,         -1.5,          1.5, -0.930000007
   1203,          -1.,          1.5, -0.930000007
   1204,         -0.5,          1.5, -0.930000007
   1205,         -1.5,          1.5, -0.465000004
   1206,          -1.,          1.5, -0.465000004
   1207,         -0.5,          1.5, -0.465000004
   1208,         -1.5,          1.5,           0.
   1209,          -1.,          1.5,           0.
   1210,         -0.5,          1.5,           0.
   1211,         -1.5,          1.5,  0.465000004
   1212,          -1.,          1.5,  0.465000004
   1213,         -0.5,          1.5,  0.465000004
   1214,         -1.5,          1.5,  0.930000007
   1215,          -1.,          1.5,  0.930000007
   1216,         -0.5,          1.5,  0.930000007
   1217,         -1.5,          1.5,   1.39499998
   1218,          -1.,          1.5,   1.39499998
   1219,         -0.5,          1.5,   1.39499998
   1220,         -1.5,          1.5,   1.86000001
   1221,          -1.,          1.5,   1.86000001
   1222,         -0.5,          1.5,   1.86000001
   1223,         -1.5,          1.5,   2.32500005
   1224,          -1.,          1.5,   2.32500005
   1225,         -0.5,          1.5,   2.32500005
   1226,         -1.5,          1.5,   2.82500005
   1227,          -1.,          1.5,   2.82500005
   1228,         -0.5,          1.5,   2.82500005
   1229,         -1.5,          1.5,   3.32500005
   1230,          -1.,          1.5,   3.32500005
   1231,         -0.5,          1.5,   3.32500005
   1232,         -1.5,          1.5,   3.82500005
   1233,          -1.,          1.5,   3.82500005
   1234,         -0.5,          1.5,   3.82500005
   1235,         -1.5,          1.5,   4.32499981
   1236,          -1.,          1.5,   4.32499981
   1237,         -0.5,          1.5,   4.32499981
   1238,         -1.5,          1.5,   4.88333321
   1239,          -1.,          1.5,   4.88333321
   1240,         -0.5,          1.5,   4.88333321
   1241,         -1.5,          1.5,    5.4416666
   1242,          -1.,          1.5,    5.4416666
   1243,         -0.5,          1.5,    5.4416666
   1244,         -1.5,           2.,  -5.44999981
   1245,          -1.,           2.,  -5.44999981
   1246,         -0.5,           2.,  -5.44999981
   1247,         -1.5,           2.,   -4.9000001
   1248,          -1.,           2.,   -4.9000001
   1249,         -0.5,           2.,   -4.9000001
   1250,         -1.5,           2.,   -4.3499999
   1251,          -1.,           2.,   -4.3499999
   1252,         -0.5,           2.,   -4.3499999
   1253,         -1.5,           2.,   -3.8499999
   1254,          -1.,           2.,   -3.8499999
   1255,         -0.5,           2.,   -3.8499999
   1256,         -1.5,           2.,   -3.3499999
   1257,          -1.,           2.,   -3.3499999
   1258,         -0.5,           2.,   -3.3499999
   1259,         -1.5,           2.,   -2.8499999
   1260,          -1.,           2.,   -2.8499999
   1261,         -0.5,           2.,   -2.8499999
   1262,         -1.5,           2.,   -2.3499999
   1263,          -1.,           2.,   -2.3499999
   1264,         -0.5,           2.,   -2.3499999
   1265,         -1.5,           2.,        -1.88
   1266,          -1.,           2.,        -1.88
   1267,         -0.5,           2.,        -1.88
   1268,         -1.5,           2.,  -1.40999997
   1269,          -1.,           2.,  -1.40999997
   1270,         -0.5,           2.,  -1.40999997
   1271,         -1.5,           2., -0.939999998
   1272,          -1.,           2., -0.939999998
   1273,         -0.5,           2., -0.939999998
   1274,         -1.5,           2., -0.469999999
   1275,          -1.,           2., -0.469999999
   1276,         -0.5,           2., -0.469999999
   1277,         -1.5,           2.,           0.
   1278,          -1.,           2.,           0.
   1279,         -0.5,           2.,           0.
   1280,         -1.5,           2.,  0.469999999
   1281,          -1.,           2.,  0.469999999
   1282,         -0.5,           2.,  0.469999999
   1283,         -1.5,           2.,  0.939999998
   1284,          -1.,           2.,  0.939999998
   1285,         -0.5,           2.,  0.939999998
   1286,         -1.5,           2.,   1.40999997
   1287,          -1.,           2.,   1.40999997
   1288,         -0.5,           2.,   1.40999997
   1289,         -1.5,           2.,         1.88
   1290,          -1.,           2.,         1.88
   1291,         -0.5,           2.,         1.88
   1292,         -1.5,           2.,    2.3499999
   1293,          -1.,           2.,    2.3499999
   1294,         -0.5,           2.,    2.3499999
   1295,         -1.5,           2.,    2.8499999
   1296,          -1.,           2.,    2.8499999
   1297,         -0.5,           2.,    2.8499999
   1298,         -1.5,           2.,    3.3499999
   1299,          -1.,           2.,    3.3499999
   1300,         -0.5,           2.,    3.3499999
   1301,         -1.5,           2.,    3.8499999
   1302,          -1.,           2.,    3.8499999
   1303,         -0.5,           2.,    3.8499999
   1304,         -1.5,           2.,    4.3499999
   1305,          -1.,           2.,    4.3499999
   1306,         -0.5,           2.,    4.3499999
   1307,         -1.5,           2.,    4.9000001
   1308,          -1.,           2.,    4.9000001
   1309,         -0.5,           2.,    4.9000001
   1310,         -1.5,           2.,   5.44999981
   1311,          -1.,           2.,   5.44999981
   1312,         -0.5,           2.,   5.44999981
   1313,         -1.5,          2.5,  -5.45833349
   1314,          -1.,          2.5,  -5.45833349
   1315,         -0.5,          2.5,  -5.45833349
   1316,         -1.5,          2.5,  -4.91666651
   1317,          -1.,          2.5,  -4.91666651
   1318,         -0.5,          2.5,  -4.91666651
   1319,         -1.5,          2.5,       -4.375
   1320,          -1.,          2.5,       -4.375
   1321,         -0.5,          2.5,       -4.375
   1322,         -1.5,          2.5,       -3.875
   1323,          -1.,          2.5,       -3.875
   1324,         -0.5,          2.5,       -3.875
   1325,         -1.5,          2.5,       -3.375
   1326,          -1.,          2.5,       -3.375
   1327,         -0.5,          2.5,       -3.375
   1328,         -1.5,          2.5,       -2.875
   1329,          -1.,          2.5,       -2.875
   1330,         -0.5,          2.5,       -2.875
   1331,         -1.5,          2.5,       -2.375
   1332,          -1.,          2.5,       -2.375
   1333,         -0.5,          2.5,       -2.375
   1334,         -1.5,          2.5,  -1.89999998
   1335,          -1.,          2.5,  -1.89999998
   1336,         -0.5,          2.5,  -1.89999998
   1337,         -1.5,          2.5,  -1.42499995
   1338,          -1.,          2.5,  -1.42499995
   1339,         -0.5,          2.5,  -1.42499995
   1340,         -1.5,          2.5, -0.949999988
   1341,          -1.,          2.5, -0.949999988
   1342,         -0.5,          2.5, -0.949999988
   1343,         -1.5,          2.5, -0.474999994
   1344,          -1.,          2.5, -0.474999994
   1345,         -0.5,          2.5, -0.474999994
   1346,         -1.5,          2.5,           0.
   1347,          -1.,          2.5,           0.
   1348,         -0.5,          2.5,           0.
   1349,         -1.5,          2.5,  0.474999994
   1350,          -1.,          2.5,  0.474999994
   1351,         -0.5,          2.5,  0.474999994
   1352,         -1.5,          2.5,  0.949999988
   1353,          -1.,          2.5,  0.949999988
   1354,         -0.5,          2.5,  0.949999988
   1355,         -1.5,          2.5,   1.42499995
   1356,          -1.,          2.5,   1.42499995
   1357,         -0.5,          2.5,   1.42499995
   1358,         -1.5,          2.5,   1.89999998
   1359,          -1.,          2.5,   1.89999998
   1360,         -0.5,          2.5,   1.89999998
   1361,         -1.5,          2.5,        2.375
   1362,          -1.,          2.5,        2.375
   1363,         -0.5,          2.5,        2.375
   1364,         -1.5,          2.5,        2.875
   1365,          -1.,          2.5,        2.875
   1366,         -0.5,          2.5,        2.875
   1367,         -1.5,          2.5,        3.375
   1368,          -1.,          2.5,        3.375
   1369,         -0.5,          2.5,        3.375
   1370,         -1.5,          2.5,        3.875
   1371,          -1.,          2.5,        3.875
   1372,         -0.5,          2.5,        3.875
   1373,         -1.5,          2.5,        4.375
   1374,          -1.,          2.5,        4.375
   1375,         -0.5,          2.5,        4.375
   1376,         -1.5,          2.5,   4.91666651
   1377,          -1.,          2.5,   4.91666651
   1378,         -0.5,          2.5,   4.91666651
   1379,         -1.5,          2.5,   5.45833349
   1380,          -1.,          2.5,   5.45833349
   1381,         -0.5,          2.5,   5.45833349
   1382,         -1.5,           3.,   -5.4666667
   1383,          -1.,           3.,   -5.4666667
   1384,         -0.5,           3.,   -5.4666667
   1385,         -1.5,           3.,   -4.9333334
   1386,          -1.,           3.,   -4.9333334
   1387,         -0.5,           3.,   -4.9333334
   1388,         -1.5,           3.,   -4.4000001
   1389,          -1.,           3.,   -4.4000001
   1390,         -0.5,           3.,   -4.4000001
   1391,         -1.5,           3.,   -3.9000001
   1392,          -1.,           3.,   -3.9000001
   1393,         -0.5,           3.,   -3.9000001
   1394,         -1.5,           3.,   -3.4000001
   1395,          -1.,           3.,   -3.4000001
   1396,         -0.5,           3.,   -3.4000001
   1397,         -1.5,           3.,   -2.9000001
   1398,          -1.,           3.,   -2.9000001
   1399,         -0.5,           3.,   -2.9000001
   1400,         -1.5,           3.,   -2.4000001
   1401,          -1.,           3.,   -2.4000001
   1402,         -0.5,           3.,   -2.4000001
   1403,         -1.5,           3.,  -1.91999996
   1404,          -1.,           3.,  -1.91999996
   1405,         -0.5,           3.,  -1.91999996
   1406,         -1.5,           3.,  -1.44000006
   1407,          -1.,           3.,  -1.44000006
   1408,         -0.5,           3.,  -1.44000006
   1409,         -1.5,           3., -0.959999979
   1410,          -1.,           3., -0.959999979
   1411,         -0.5,           3., -0.959999979
   1412,         -1.5,           3., -0.479999989
   1413,          -1.,           3., -0.479999989
   1414,         -0.5,           3., -0.479999989
   1415,         -1.5,           3.,           0.
   1416,          -1.,           3.,           0.
   1417,         -0.5,           3.,           0.
   1418,         -1.5,           3.,  0.479999989
   1419,          -1.,           3.,  0.479999989
   1420,         -0.5,           3.,  0.479999989
   1421,         -1.5,           3.,  0.959999979
   1422,          -1.,           3.,  0.959999979
   1423,         -0.5,           3.,  0.959999979
   1424,         -1.5,           3.,   1.44000006
   1425,          -1.,           3.,   1.44000006
   1426,         -0.5,           3.,   1.44000006
   1427,         -1.5,           3.,   1.91999996
   1428,          -1.,           3.,   1.91999996
   1429,         -0.5,           3.,   1.91999996
   1430,         -1.5,           3.,    2.4000001
   1431,          -1.,           3.,    2.4000001
   1432,         -0.5,           3.,    2.4000001
   1433,         -1.5,           3.,    2.9000001
   1434,          -1.,           3.,    2.9000001
   1435,         -0.5,           3.,    2.9000001
   1436,         -1.5,           3.,    3.4000001
   1437,          -1.,           3.,    3.4000001
   1438,         -0.5,           3.,    3.4000001
   1439,         -1.5,           3.,    3.9000001
   1440,          -1.,           3.,    3.9000001
   1441,         -0.5,           3.,    3.9000001
   1442,         -1.5,           3.,    4.4000001
   1443,          -1.,           3.,    4.4000001
   1444,         -0.5,           3.,    4.4000001
   1445,         -1.5,           3.,    4.9333334
   1446,          -1.,           3.,    4.9333334
   1447,         -0.5,           3.,    4.9333334
   1448,         -1.5,           3.,    5.4666667
   1449,          -1.,           3.,    5.4666667
   1450,         -0.5,           3.,    5.4666667
   1451,         -1.5,          3.5,   -5.4749999
   1452,          -1.,          3.5,   -5.4749999
   1453,         -0.5,          3.5,   -5.4749999
   1454,         -1.5,          3.5,  -4.94999981
   1455,          -1.,          3.5,  -4.94999981
   1456,         -0.5,          3.5,  -4.94999981
   1457,         -1.5,          3.5,  -4.42500019
   1458,          -1.,          3.5,  -4.42500019
   1459,         -0.5,          3.5,  -4.42500019
   1460,         -1.5,          3.5,  -3.92499995
   1461,          -1.,          3.5,  -3.92499995
   1462,         -0.5,          3.5,  -3.92499995
   1463,         -1.5,          3.5,  -3.42499995
   1464,          -1.,          3.5,  -3.42499995
   1465,         -0.5,          3.5,  -3.42499995
   1466,         -1.5,          3.5,  -2.92499995
   1467,          -1.,          3.5,  -2.92499995
   1468,         -0.5,          3.5,  -2.92499995
   1469,         -1.5,          3.5,  -2.42499995
   1470,          -1.,          3.5,  -2.42499995
   1471,         -0.5,          3.5,  -2.42499995
   1472,         -1.5,          3.5,  -1.94000006
   1473,          -1.,          3.5,  -1.94000006
   1474,         -0.5,          3.5,  -1.94000006
   1475,         -1.5,          3.5,  -1.45500004
   1476,          -1.,          3.5,  -1.45500004
   1477,         -0.5,          3.5,  -1.45500004
   1478,         -1.5,          3.5, -0.970000029
   1479,          -1.,          3.5, -0.970000029
   1480,         -0.5,          3.5, -0.970000029
   1481,         -1.5,          3.5, -0.485000014
   1482,          -1.,          3.5, -0.485000014
   1483,         -0.5,          3.5, -0.485000014
   1484,         -1.5,          3.5,           0.
   1485,          -1.,          3.5,           0.
   1486,         -0.5,          3.5,           0.
   1487,         -1.5,          3.5,  0.485000014
   1488,          -1.,          3.5,  0.485000014
   1489,         -0.5,          3.5,  0.485000014
   1490,         -1.5,          3.5,  0.970000029
   1491,          -1.,          3.5,  0.970000029
   1492,         -0.5,          3.5,  0.970000029
   1493,         -1.5,          3.5,   1.45500004
   1494,          -1.,          3.5,   1.45500004
   1495,         -0.5,          3.5,   1.45500004
   1496,         -1.5,          3.5,   1.94000006
   1497,          -1.,          3.5,   1.94000006
   1498,         -0.5,          3.5,   1.94000006
   1499,         -1.5,          3.5,   2.42499995
   1500,          -1.,          3.5,   2.42499995
   1501,         -0.5,          3.5,   2.42499995
   1502,         -1.5,          3.5,   2.92499995
   1503,          -1.,          3.5,   2.92499995
   1504,         -0.5,          3.5,   2.92499995
   1505,         -1.5,          3.5,   3.42499995
   1506,          -1.,          3.5,   3.42499995
   1507,         -0.5,          3.5,   3.42499995
   1508,         -1.5,          3.5,   3.92499995
   1509,          -1.,          3.5,   3.92499995
   1510,         -0.5,          3.5,   3.92499995
   1511,         -1.5,          3.5,   4.42500019
   1512,          -1.,          3.5,   4.42500019
   1513,         -0.5,          3.5,   4.42500019
   1514,         -1.5,          3.5,   4.94999981
   1515,          -1.,          3.5,   4.94999981
   1516,         -0.5,          3.5,   4.94999981
   1517,         -1.5,          3.5,    5.4749999
   1518,          -1.,          3.5,    5.4749999
   1519,         -0.5,          3.5,    5.4749999
   1520,         -1.5,           4.,  -5.48333311
   1521,          -1.,           4.,  -5.48333311
   1522,         -0.5,           4.,  -5.48333311
   1523,         -1.5,           4.,   -4.9666667
   1524,          -1.,           4.,   -4.9666667
   1525,         -0.5,           4.,   -4.9666667
   1526,         -1.5,           4.,  -4.44999981
   1527,          -1.,           4.,  -4.44999981
   1528,         -0.5,           4.,  -4.44999981
   1529,         -1.5,           4.,  -3.95000005
   1530,          -1.,           4.,  -3.95000005
   1531,         -0.5,           4.,  -3.95000005
   1532,         -1.5,           4.,  -3.45000005
   1533,          -1.,           4.,  -3.45000005
   1534,         -0.5,           4.,  -3.45000005
   1535,         -1.5,           4.,  -2.95000005
   1536,          -1.,           4.,  -2.95000005
   1537,         -0.5,           4.,  -2.95000005
   1538,         -1.5,           4.,  -2.45000005
   1539,          -1.,           4.,  -2.45000005
   1540,         -0.5,           4.,  -2.45000005
   1541,         -1.5,           4.,  -1.96000004
   1542,          -1.,           4.,  -1.96000004
   1543,         -0.5,           4.,  -1.96000004
   1544,         -1.5,           4.,  -1.47000003
   1545,          -1.,           4.,  -1.47000003
   1546,         -0.5,           4.,  -1.47000003
   1547,         -1.5,           4., -0.980000019
   1548,          -1.,           4., -0.980000019
   1549,         -0.5,           4., -0.980000019
   1550,         -1.5,           4.,  -0.49000001
   1551,          -1.,           4.,  -0.49000001
   1552,         -0.5,           4.,  -0.49000001
   1553,         -1.5,           4.,           0.
   1554,          -1.,           4.,           0.
   1555,         -0.5,           4.,           0.
   1556,         -1.5,           4.,   0.49000001
   1557,          -1.,           4.,   0.49000001
   1558,         -0.5,           4.,   0.49000001
   1559,         -1.5,           4.,  0.980000019
   1560,          -1.,           4.,  0.980000019
   1561,         -0.5,           4.,  0.980000019
   1562,         -1.5,           4.,   1.47000003
   1563,          -1.,           4.,   1.47000003
   1564,         -0.5,           4.,   1.47000003
   1565,         -1.5,           4.,   1.96000004
   1566,          -1.,           4.,   1.96000004
   1567,         -0.5,           4.,   1.96000004
   1568,         -1.5,           4.,   2.45000005
   1569,          -1.,           4.,   2.45000005
   1570,         -0.5,           4.,   2.45000005
   1571,         -1.5,           4.,   2.95000005
   1572,          -1.,           4.,   2.95000005
   1573,         -0.5,           4.,   2.95000005
   1574,         -1.5,           4.,   3.45000005
   1575,          -1.,           4.,   3.45000005
   1576,         -0.5,           4.,   3.45000005
   1577,         -1.5,           4.,   3.95000005
   1578,          -1.,           4.,   3.95000005
   1579,         -0.5,           4.,   3.95000005
   1580,         -1.5,           4.,   4.44999981
   1581,          -1.,           4.,   4.44999981
   1582,         -0.5,           4.,   4.44999981
   1583,         -1.5,           4.,    4.9666667
   1584,          -1.,           4.,    4.9666667
   1585,         -0.5,           4.,    4.9666667
   1586,         -1.5,           4.,   5.48333311
   1587,          -1.,           4.,   5.48333311
   1588,         -0.5,           4.,   5.48333311
   1589,         -1.5,          4.5,  -5.49166679
   1590,          -1.,          4.5,  -5.49166679
   1591,         -0.5,          4.5,  -5.49166679
   1592,         -1.5,          4.5,  -4.98333311
   1593,          -1.,          4.5,  -4.98333311
   1594,         -0.5,          4.5,  -4.98333311
   1595,         -1.5,          4.5,   -4.4749999
   1596,          -1.,          4.5,   -4.4749999
   1597,         -0.5,          4.5,   -4.4749999
   1598,         -1.5,          4.5,   -3.9749999
   1599,          -1.,          4.5,   -3.9749999
   1600,         -0.5,          4.5,   -3.9749999
   1601,         -1.5,          4.5,   -3.4749999
   1602,          -1.,          4.5,   -3.4749999
   1603,         -0.5,          4.5,   -3.4749999
   1604,         -1.5,          4.5,   -2.9749999
   1605,          -1.,          4.5,   -2.9749999
   1606,         -0.5,          4.5,   -2.9749999
   1607,         -1.5,          4.5,   -2.4749999
   1608,          -1.,          4.5,   -2.4749999
   1609,         -0.5,          4.5,   -2.4749999
   1610,         -1.5,          4.5,  -1.98000002
   1611,          -1.,          4.5,  -1.98000002
   1612,         -0.5,          4.5,  -1.98000002
   1613,         -1.5,          4.5,  -1.48500001
   1614,          -1.,          4.5,  -1.48500001
   1615,         -0.5,          4.5,  -1.48500001
   1616,         -1.5,          4.5,  -0.99000001
   1617,          -1.,          4.5,  -0.99000001
   1618,         -0.5,          4.5,  -0.99000001
   1619,         -1.5,          4.5, -0.495000005
   1620,          -1.,          4.5, -0.495000005
   1621,         -0.5,          4.5, -0.495000005
   1622,         -1.5,          4.5,           0.
   1623,          -1.,          4.5,           0.
   1624,         -0.5,          4.5,           0.
   1625,         -1.5,          4.5,  0.495000005
   1626,          -1.,          4.5,  0.495000005
   1627,         -0.5,          4.5,  0.495000005
   1628,         -1.5,          4.5,   0.99000001
   1629,          -1.,          4.5,   0.99000001
   1630,         -0.5,          4.5,   0.99000001
   1631,         -1.5,          4.5,   1.48500001
   1632,          -1.,          4.5,   1.48500001
   1633,         -0.5,          4.5,   1.48500001
   1634,         -1.5,          4.5,   1.98000002
   1635,          -1.,          4.5,   1.98000002
   1636,         -0.5,          4.5,   1.98000002
   1637,         -1.5,          4.5,    2.4749999
   1638,          -1.,          4.5,    2.4749999
   1639,         -0.5,          4.5,    2.4749999
   1640,         -1.5,          4.5,    2.9749999
   1641,          -1.,          4.5,    2.9749999
   1642,         -0.5,          4.5,    2.9749999
   1643,         -1.5,          4.5,    3.4749999
   1644,          -1.,          4.5,    3.4749999
   1645,         -0.5,          4.5,    3.4749999
   1646,         -1.5,          4.5,    3.9749999
   1647,          -1.,          4.5,    3.9749999
   1648,         -0.5,          4.5,    3.9749999
   1649,         -1.5,          4.5,    4.4749999
   1650,          -1.,          4.5,    4.4749999
   1651,         -0.5,          4.5,    4.4749999
   1652,         -1.5,          4.5,   4.98333311
   1653,          -1.,          4.5,   4.98333311
   1654,         -0.5,          4.5,   4.98333311
   1655,         -1.5,          4.5,   5.49166679
   1656,          -1.,          4.5,   5.49166679
   1657,         -0.5,          4.5,   5.49166679
   1658,         -1.5,         -0.5,  -5.41666651
   1659,          -1.,         -0.5,  -5.41666651
   1660,         -0.5,         -0.5,  -5.41666651
   1661,         -1.5,          -1.,  -5.41666651
   1662,          -1.,          -1.,  -5.41666651
   1663,         -0.5,          -1.,  -5.41666651
   1664,         -1.5,         -1.5,  -5.41666651
   1665,          -1.,         -1.5,  -5.41666651
   1666,         -0.5,         -1.5,  -5.41666651
   1667,         -1.5,         -0.5,  -4.83333349
   1668,          -1.,         -0.5,  -4.83333349
   1669,         -0.5,         -0.5,  -4.83333349
   1670,         -1.5,          -1.,  -4.83333349
   1671,          -1.,          -1.,  -4.83333349
   1672,         -0.5,          -1.,  -4.83333349
   1673,         -1.5,         -1.5,  -4.83333349
   1674,          -1.,         -1.5,  -4.83333349
   1675,         -0.5,         -1.5,  -4.83333349
*Element, type=C3D8R
 1, 251, 252, 984, 976,  25,  26, 234, 233
 2, 252, 253, 985, 984,  26,  27, 235, 234
 3, 253,  33, 242, 985,  27,   1,  28, 235
 4, 976, 984, 986, 977, 233, 234, 237, 236
 5, 984, 985, 987, 986, 234, 235, 238, 237
 6, 985, 242, 243, 987, 235,  28,  29, 238
 7, 977, 986, 978, 970, 236, 237, 240, 239
 8, 986, 987, 979, 978, 237, 238, 241, 240
 9, 987, 243, 244, 979, 238,  29,  30, 241
10, 254, 255, 972, 969, 251, 252, 984, 976
11, 255, 256, 973, 972, 252, 253, 985, 984
12, 256,  32, 245, 973, 253,  33, 242, 985
13, 969, 972, 974, 968, 976, 984, 986, 977
14, 972, 973, 975, 974, 984, 985, 987, 986
15, 973, 245, 246, 975, 985, 242, 243, 987
16, 968, 974, 967, 965, 977, 986, 978, 970
17, 974, 975, 966, 967, 986, 987, 979, 978
18, 975, 246, 247, 966, 987, 243, 244, 979
19, 244,  39, 260, 979,  30,   2,  34, 241
20, 979, 260, 261, 978, 241,  34,  35, 240
21, 978, 261, 262, 970, 240,  35,  36, 239
22, 247,  40, 263, 966, 244,  39, 260, 979
23, 966, 263, 264, 967, 979, 260, 261, 978
24, 967, 264, 265, 965, 978, 261, 262, 970
25, 262, 266, 977, 970,  36,  37, 236, 239
26, 266, 267, 976, 977,  37,  38, 233, 236
27, 267,  44, 251, 976,  38,   3,  25, 233
28, 265, 268, 968, 965, 262, 266, 977, 970
29, 268, 269, 969, 968, 266, 267, 976, 977
30, 269,  43, 254, 969, 267,  44, 251, 976
31, 275,  48, 270, 980,  45,   4,  41, 248
32, 980, 270, 263, 966, 248,  41,  40, 247
33, 276,  49, 271, 981, 275,  48, 270, 980
34, 981, 271, 264, 967, 980, 270, 263, 966
35, 277,  50, 272, 971, 276,  49, 271, 981
36, 971, 272, 265, 965, 981, 271, 264, 967
37, 256, 257, 988, 973,  32,  31, 249, 245
38, 257,  53, 278, 988,  31,   5,  47, 249
39, 973, 988, 989, 975, 245, 249, 250, 246
40, 988, 278, 279, 989, 249,  47,  46, 250
41, 975, 989, 980, 966, 246, 250, 248, 247
42, 989, 279, 275, 980, 250,  46,  45, 248
43, 255, 258, 990, 972, 256, 257, 988, 973
44, 258,  54, 280, 990, 257,  53, 278, 988
45, 972, 990, 991, 974, 973, 988, 989, 975
46, 990, 280, 281, 991, 988, 278, 279, 989
47, 974, 991, 981, 967, 975, 989, 980, 966
48, 991, 281, 276, 981, 989, 279, 275, 980
49, 254, 259, 982, 969, 255, 258, 990, 972
50, 259,  55, 282, 982, 258,  54, 280, 990
51, 969, 982, 983, 968, 972, 990, 991, 974
52, 982, 282, 283, 983, 990, 280, 281, 991
53, 968, 983, 971, 965, 974, 991, 981, 967
54, 983, 283, 277, 971, 991, 281, 276, 981
55, 277, 283, 983, 971,  50,  51, 273, 272
56, 283, 282, 982, 983,  51,  52, 274, 273
57, 282,  55, 259, 982,  52,   6,  42, 274
58, 971, 983, 968, 965, 272, 273, 268, 265
59, 983, 982, 969, 968, 273, 274, 269, 268
60, 982, 259, 254, 969, 274,  42,  43, 269
 61,   81,  308,  992,  296,    7,   56,  284,   65
 62,  308,  309,  993,  992,   56,   57,  285,  284
 63,  309,  310,  994,  993,   57,   58,  286,  285
 64,  310,   87,  302,  994,   58,    8,   59,  286
 65,  296,  992,  995,  297,   65,  284,  287,   64
 66,  992,  993,  996,  995,  284,  285,  288,  287
 67,  993,  994,  997,  996,  285,  286,  289,  288
 68,  994,  302,  303,  997,  286,   59,   60,  289
 69,  297,  995,  317,   76,   64,  287,   63,   10
 70,  995,  996,  318,  317,  287,  288,   62,   63
 71,  996,  997,  319,  318,  288,  289,   61,   62
 72,  997,  303,   82,  319,  289,   60,    9,   61
 73,   80,  311,  998,  298,   81,  308,  992,  296
 74,  311,  312,  999,  998,  308,  309,  993,  992
 75,  312,  313, 1000,  999,  309,  310,  994,  993
 76,  313,   86,  304, 1000,  310,   87,  302,  994
 77,  298,  998, 1001,  299,  296,  992,  995,  297
 78,  998,  999, 1002, 1001,  992,  993,  996,  995
 79,  999, 1000, 1003, 1002,  993,  994,  997,  996
 80, 1000,  304,  305, 1003,  994,  302,  303,  997
 81,  299, 1001,  320,   77,  297,  995,  317,   76
 82, 1001, 1002,  321,  320,  995,  996,  318,  317
 83, 1002, 1003,  322,  321,  996,  997,  319,  318
 84, 1003,  305,   83,  322,  997,  303,   82,  319
 85,   79,  314, 1004,  300,   80,  311,  998,  298
 86,  314,  315, 1005, 1004,  311,  312,  999,  998
 87,  315,  316, 1006, 1005,  312,  313, 1000,  999
 88,  316,   85,  306, 1006,  313,   86,  304, 1000
 89,  300, 1004, 1007,  301,  298,  998, 1001,  299
 90, 1004, 1005, 1008, 1007,  998,  999, 1002, 1001
 91, 1005, 1006, 1009, 1008,  999, 1000, 1003, 1002
 92, 1006,  306,  307, 1009, 1000,  304,  305, 1003
 93,  301, 1007,  323,   78,  299, 1001,  320,   77
 94, 1007, 1008,  324,  323, 1001, 1002,  321,  320
 95, 1008, 1009,  325,  324, 1002, 1003,  322,  321
 96, 1009,  307,   84,  325, 1003,  305,   83,  322
 97,   14,   68,  290,   74,   79,  314, 1004,  300
 98,   68,   67,  291,  290,  314,  315, 1005, 1004
 99,   67,   66,  292,  291,  315,  316, 1006, 1005
100,   66,   11,   70,  292,  316,   85,  306, 1006
101,   74,  290,  293,   75,  300, 1004, 1007,  301
102,  290,  291,  294,  293, 1004, 1005, 1008, 1007
103,  291,  292,  295,  294, 1005, 1006, 1009, 1008
104,  292,   70,   69,  295, 1006,  306,  307, 1009
105,   75,  293,   71,   13,  301, 1007,  323,   78
106,  293,  294,   72,   71, 1007, 1008,  324,  323
107,  294,  295,   73,   72, 1008, 1009,  325,  324
108,  295,   69,   12,   73, 1009,  307,   84,  325
109,  335,  336, 1017, 1013,   90,   91,  327,  326
110,  336,  337, 1018, 1017,   91,   92,  328,  327
111,  337,   79,  314, 1018,   92,   14,   68,  328
112,  338,  339, 1012, 1010,  335,  336, 1017, 1013
113,  339,  340, 1011, 1012,  336,  337, 1018, 1017
114,  340,   80,  311, 1011,  337,   79,  314, 1018
115,  314,  315, 1029, 1018,   68,   67,  329,  328
116,  315,  316, 1030, 1029,   67,   66,  330,  329
117,  316,   85,  350, 1030,   66,   11,   93,  330
118, 1018, 1029, 1031, 1017,  328,  329,  331,  327
119, 1029, 1030, 1032, 1031,  329,  330,  332,  331
120, 1030,  350,  351, 1032,  330,   93,   94,  332
121, 1017, 1031, 1023, 1013,  327,  331,  333,  326
122, 1031, 1032, 1024, 1023,  331,  332,  334,  333
123, 1032,  351,  352, 1024,  332,   94,   95,  334
124,  311,  312, 1019, 1011,  314,  315, 1029, 1018
125,  312,  313, 1020, 1019,  315,  316, 1030, 1029
126,  313,   86,  353, 1020,  316,   85,  350, 1030
127, 1011, 1019, 1021, 1012, 1018, 1029, 1031, 1017
128, 1019, 1020, 1022, 1021, 1029, 1030, 1032, 1031
129, 1020,  353,  354, 1022, 1030,  350,  351, 1032
130, 1012, 1021, 1014, 1010, 1017, 1031, 1023, 1013
131, 1021, 1022, 1015, 1014, 1031, 1032, 1024, 1023
132, 1022,  354,  355, 1015, 1032,  351,  352, 1024
133,  352,   96,  341, 1024,   95,   15,   88,  334
134, 1024,  341,  342, 1023,  334,   88,   89,  333
135, 1023,  342,  335, 1013,  333,   89,   90,  326
136,  355,   97,  343, 1015,  352,   96,  341, 1024
137, 1015,  343,  344, 1014, 1024,  341,  342, 1023
138, 1014,  344,  338, 1010, 1023,  342,  335, 1013
139,  340,  345, 1025, 1011,   80,   81,  308,  311
140,  345,   99,  359, 1025,   81,    7,   56,  308
141,  339,  346, 1026, 1012,  340,  345, 1025, 1011
142,  346,  100,  360, 1026,  345,   99,  359, 1025
143,  338,  347, 1016, 1010,  339,  346, 1026, 1012
144,  347,  101,  361, 1016,  346,  100,  360, 1026
145,  359,  362, 1033, 1025,   56,   57,  309,  308
146,  362,  363, 1034, 1033,   57,   58,  310,  309
147,  363,  106,  356, 1034,   58,    8,   87,  310
148, 1025, 1033, 1019, 1011,  308,  309,  312,  311
149, 1033, 1034, 1020, 1019,  309,  310,  313,  312
150, 1034,  356,  353, 1020,  310,   87,   86,  313
151,  360,  364, 1035, 1026,  359,  362, 1033, 1025
152,  364,  365, 1036, 1035,  362,  363, 1034, 1033
153,  365,  105,  357, 1036,  363,  106,  356, 1034
154, 1026, 1035, 1021, 1012, 1025, 1033, 1019, 1011
155, 1035, 1036, 1022, 1021, 1033, 1034, 1020, 1019
156, 1036,  357,  354, 1022, 1034,  356,  353, 1020
157,  361,  366, 1027, 1016,  360,  364, 1035, 1026
158,  366,  367, 1028, 1027,  364,  365, 1036, 1035
159,  367,  104,  358, 1028,  365,  105,  357, 1036
160, 1016, 1027, 1014, 1010, 1026, 1035, 1021, 1012
161, 1027, 1028, 1015, 1014, 1035, 1036, 1022, 1021
162, 1028,  358,  355, 1015, 1036,  357,  354, 1022
163,  367,  103,  348, 1028,  104,   16,   98,  358
164, 1028,  348,  343, 1015,  358,   98,   97,  355
165,  366,  102,  349, 1027,  367,  103,  348, 1028
166, 1027,  349,  344, 1014, 1028,  348,  343, 1015
167,  361,  101,  347, 1016,  366,  102,  349, 1027
168, 1016,  347,  338, 1010, 1027,  349,  344, 1014
 169,  201,  884, 1037,  470,   17,  107,  368,  113
 170,  884,  885, 1038, 1037,  107,  108,  369,  368
 171,  885,  886, 1039, 1038,  108,  109,  370,  369
 172,  886,  211,  677, 1039,  109,   18,  110,  370
 173,  470, 1037, 1040,  471,  113,  368,  371,  112
 174, 1037, 1038, 1041, 1040,  368,  369,  372,  371
 175, 1038, 1039, 1042, 1041,  369,  370,  373,  372
 176, 1039,  677,  678, 1042,  370,  110,  111,  373
 177,  471, 1040, 1043,  472,  112,  371,   33,    1
 178, 1040, 1041, 1044, 1043,  371,  372,   32,   33
 179, 1041, 1042, 1045, 1044,  372,  373,   31,   32
 180, 1042,  678,  679, 1045,  373,  111,    5,   31
 181,  472, 1043, 1046,  473,    1,   33,  253,   27
 182, 1043, 1044, 1047, 1046,   33,   32,  256,  253
 183, 1044, 1045, 1048, 1047,   32,   31,  257,  256
 184, 1045,  679,  680, 1048,   31,    5,   53,  257
 185,  473, 1046, 1049,  474,   27,  253,  252,   26
 186, 1046, 1047, 1050, 1049,  253,  256,  255,  252
 187, 1047, 1048, 1051, 1050,  256,  257,  258,  255
 188, 1048,  680,  681, 1051,  257,   53,   54,  258
 189,  474, 1049, 1052,  475,   26,  252,  251,   25
 190, 1049, 1050, 1053, 1052,  252,  255,  254,  251
 191, 1050, 1051, 1054, 1053,  255,  258,  259,  254
 192, 1051,  681,  682, 1054,  258,   54,   55,  259
 193,  475, 1052, 1055,  476,   25,  251,   44,    3
 194, 1052, 1053, 1056, 1055,  251,  254,   43,   44
 195, 1053, 1054, 1057, 1056,  254,  259,   42,   43
 196, 1054,  682,  683, 1057,  259,   55,    6,   42
 197,  476, 1055, 1058,  477,    3,   44,  392,  131
 198, 1055, 1056, 1059, 1058,   44,   43,  383,  392
 199, 1056, 1057, 1060, 1059,   43,   42,  374,  383
 200, 1057,  683,  684, 1060,   42,    6,  114,  374
 201,  477, 1058, 1061,  478,  131,  392,  393,  130
 202, 1058, 1059, 1062, 1061,  392,  383,  384,  393
 203, 1059, 1060, 1063, 1062,  383,  374,  375,  384
 204, 1060,  684,  685, 1063,  374,  114,  115,  375
 205,  478, 1061, 1064,  479,  130,  393,  394,  129
 206, 1061, 1062, 1065, 1064,  393,  384,  385,  394
 207, 1062, 1063, 1066, 1065,  384,  375,  376,  385
 208, 1063,  685,  686, 1066,  375,  115,  116,  376
 209,  479, 1064, 1067,  480,  129,  394,  395,  128
 210, 1064, 1065, 1068, 1067,  394,  385,  386,  395
 211, 1065, 1066, 1069, 1068,  385,  376,  377,  386
 212, 1066,  686,  687, 1069,  376,  116,  117,  377
 213,  480, 1067, 1070,  481,  128,  395,  396,  127
 214, 1067, 1068, 1071, 1070,  395,  386,  387,  396
 215, 1068, 1069, 1072, 1071,  386,  377,  378,  387
 216, 1069,  687,  688, 1072,  377,  117,  118,  378
 217,  481, 1070, 1073,  482,  127,  396,  397,  126
 218, 1070, 1071, 1074, 1073,  396,  387,  388,  397
 219, 1071, 1072, 1075, 1074,  387,  378,  379,  388
 220, 1072,  688,  689, 1075,  378,  118,  119,  379
 221,  482, 1073, 1076,  483,  126,  397,  398,  125
 222, 1073, 1074, 1077, 1076,  397,  388,  389,  398
 223, 1074, 1075, 1078, 1077,  388,  379,  380,  389
 224, 1075,  689,  690, 1078,  379,  119,  120,  380
 225,  483, 1076, 1079,  484,  125,  398,  399,  124
 226, 1076, 1077, 1080, 1079,  398,  389,  390,  399
 227, 1077, 1078, 1081, 1080,  389,  380,  381,  390
 228, 1078,  690,  691, 1081,  380,  120,  121,  381
 229,  484, 1079, 1082,  485,  124,  399,  400,  123
 230, 1079, 1080, 1083, 1082,  399,  390,  391,  400
 231, 1080, 1081, 1084, 1083,  390,  381,  382,  391
 232, 1081,  691,  692, 1084,  381,  121,  122,  382
 233,  485, 1082, 1085,  486,  123,  400,   96,   15
 234, 1082, 1083, 1086, 1085,  400,  391,   97,   96
 235, 1083, 1084, 1087, 1086,  391,  382,   98,   97
 236, 1084,  692,  693, 1087,  382,  122,   16,   98
 237,  486, 1085, 1088,  487,   15,   96,  352,   95
 238, 1085, 1086, 1089, 1088,   96,   97,  355,  352
 239, 1086, 1087, 1090, 1089,   97,   98,  358,  355
 240, 1087,  693,  694, 1090,   98,   16,  104,  358
 241,  487, 1088, 1091,  488,   95,  352,  351,   94
 242, 1088, 1089, 1092, 1091,  352,  355,  354,  351
 243, 1089, 1090, 1093, 1092,  355,  358,  357,  354
 244, 1090,  694,  695, 1093,  358,  104,  105,  357
 245,  488, 1091, 1094,  489,   94,  351,  350,   93
 246, 1091, 1092, 1095, 1094,  351,  354,  353,  350
 247, 1092, 1093, 1096, 1095,  354,  357,  356,  353
 248, 1093,  695,  696, 1096,  357,  105,  106,  356
 249,  489, 1094, 1097,  490,   93,  350,   85,   11
 250, 1094, 1095, 1098, 1097,  350,  353,   86,   85
 251, 1095, 1096, 1099, 1098,  353,  356,   87,   86
 252, 1096,  696,  697, 1099,  356,  106,    8,   87
 253,  490, 1097, 1100,  491,   11,   85,  306,   70
 254, 1097, 1098, 1101, 1100,   85,   86,  304,  306
 255, 1098, 1099, 1102, 1101,   86,   87,  302,  304
 256, 1099,  697,  698, 1102,   87,    8,   59,  302
 257,  491, 1100, 1103,  492,   70,  306,  307,   69
 258, 1100, 1101, 1104, 1103,  306,  304,  305,  307
 259, 1101, 1102, 1105, 1104,  304,  302,  303,  305
 260, 1102,  698,  699, 1105,  302,   59,   60,  303
 261,  492, 1103,  911,  184,   69,  307,   84,   12
 262, 1103, 1104,  912,  911,  307,  305,   83,   84
 263, 1104, 1105,  913,  912,  305,  303,   82,   83
 264, 1105,  699,  210,  913,  303,   60,    9,   82
 265,  200,  887, 1106,  493,  201,  884, 1037,  470
 266,  887,  888, 1107, 1106,  884,  885, 1038, 1037
 267,  888,  889, 1108, 1107,  885,  886, 1039, 1038
 268,  889,  212,  700, 1108,  886,  211,  677, 1039
 269,  493, 1106, 1109,  494,  470, 1037, 1040,  471
 270, 1106, 1107, 1110, 1109, 1037, 1038, 1041, 1040
 271, 1107, 1108, 1111, 1110, 1038, 1039, 1042, 1041
 272, 1108,  700,  701, 1111, 1039,  677,  678, 1042
 273,  494, 1109, 1112,  495,  471, 1040, 1043,  472
 274, 1109, 1110, 1113, 1112, 1040, 1041, 1044, 1043
 275, 1110, 1111, 1114, 1113, 1041, 1042, 1045, 1044
 276, 1111,  701,  702, 1114, 1042,  678,  679, 1045
 277,  495, 1112, 1115,  496,  472, 1043, 1046,  473
 278, 1112, 1113, 1116, 1115, 1043, 1044, 1047, 1046
 279, 1113, 1114, 1117, 1116, 1044, 1045, 1048, 1047
 280, 1114,  702,  703, 1117, 1045,  679,  680, 1048
 281,  496, 1115, 1118,  497,  473, 1046, 1049,  474
 282, 1115, 1116, 1119, 1118, 1046, 1047, 1050, 1049
 283, 1116, 1117, 1120, 1119, 1047, 1048, 1051, 1050
 284, 1117,  703,  704, 1120, 1048,  680,  681, 1051
 285,  497, 1118, 1121,  498,  474, 1049, 1052,  475
 286, 1118, 1119, 1122, 1121, 1049, 1050, 1053, 1052
 287, 1119, 1120, 1123, 1122, 1050, 1051, 1054, 1053
 288, 1120,  704,  705, 1123, 1051,  681,  682, 1054
 289,  498, 1121, 1124,  499,  475, 1052, 1055,  476
 290, 1121, 1122, 1125, 1124, 1052, 1053, 1056, 1055
 291, 1122, 1123, 1126, 1125, 1053, 1054, 1057, 1056
 292, 1123,  705,  706, 1126, 1054,  682,  683, 1057
 293,  499, 1124, 1127,  500,  476, 1055, 1058,  477
 294, 1124, 1125, 1128, 1127, 1055, 1056, 1059, 1058
 295, 1125, 1126, 1129, 1128, 1056, 1057, 1060, 1059
 296, 1126,  706,  707, 1129, 1057,  683,  684, 1060
 297,  500, 1127, 1130,  501,  477, 1058, 1061,  478
 298, 1127, 1128, 1131, 1130, 1058, 1059, 1062, 1061
 299, 1128, 1129, 1132, 1131, 1059, 1060, 1063, 1062
 300, 1129,  707,  708, 1132, 1060,  684,  685, 1063
 301,  501, 1130, 1133,  502,  478, 1061, 1064,  479
 302, 1130, 1131, 1134, 1133, 1061, 1062, 1065, 1064
 303, 1131, 1132, 1135, 1134, 1062, 1063, 1066, 1065
 304, 1132,  708,  709, 1135, 1063,  685,  686, 1066
 305,  502, 1133, 1136,  503,  479, 1064, 1067,  480
 306, 1133, 1134, 1137, 1136, 1064, 1065, 1068, 1067
 307, 1134, 1135, 1138, 1137, 1065, 1066, 1069, 1068
 308, 1135,  709,  710, 1138, 1066,  686,  687, 1069
 309,  503, 1136, 1139,  504,  480, 1067, 1070,  481
 310, 1136, 1137, 1140, 1139, 1067, 1068, 1071, 1070
 311, 1137, 1138, 1141, 1140, 1068, 1069, 1072, 1071
 312, 1138,  710,  711, 1141, 1069,  687,  688, 1072
 313,  504, 1139, 1142,  505,  481, 1070, 1073,  482
 314, 1139, 1140, 1143, 1142, 1070, 1071, 1074, 1073
 315, 1140, 1141, 1144, 1143, 1071, 1072, 1075, 1074
 316, 1141,  711,  712, 1144, 1072,  688,  689, 1075
 317,  505, 1142, 1145,  506,  482, 1073, 1076,  483
 318, 1142, 1143, 1146, 1145, 1073, 1074, 1077, 1076
 319, 1143, 1144, 1147, 1146, 1074, 1075, 1078, 1077
 320, 1144,  712,  713, 1147, 1075,  689,  690, 1078
 321,  506, 1145, 1148,  507,  483, 1076, 1079,  484
 322, 1145, 1146, 1149, 1148, 1076, 1077, 1080, 1079
 323, 1146, 1147, 1150, 1149, 1077, 1078, 1081, 1080
 324, 1147,  713,  714, 1150, 1078,  690,  691, 1081
 325,  507, 1148, 1151,  508,  484, 1079, 1082,  485
 326, 1148, 1149, 1152, 1151, 1079, 1080, 1083, 1082
 327, 1149, 1150, 1153, 1152, 1080, 1081, 1084, 1083
 328, 1150,  714,  715, 1153, 1081,  691,  692, 1084
 329,  508, 1151, 1154,  509,  485, 1082, 1085,  486
 330, 1151, 1152, 1155, 1154, 1082, 1083, 1086, 1085
 331, 1152, 1153, 1156, 1155, 1083, 1084, 1087, 1086
 332, 1153,  715,  716, 1156, 1084,  692,  693, 1087
 333,  509, 1154, 1157,  510,  486, 1085, 1088,  487
 334, 1154, 1155, 1158, 1157, 1085, 1086, 1089, 1088
 335, 1155, 1156, 1159, 1158, 1086, 1087, 1090, 1089
 336, 1156,  716,  717, 1159, 1087,  693,  694, 1090
 337,  510, 1157, 1160,  511,  487, 1088, 1091,  488
 338, 1157, 1158, 1161, 1160, 1088, 1089, 1092, 1091
 339, 1158, 1159, 1162, 1161, 1089, 1090, 1093, 1092
 340, 1159,  717,  718, 1162, 1090,  694,  695, 1093
 341,  511, 1160, 1163,  512,  488, 1091, 1094,  489
 342, 1160, 1161, 1164, 1163, 1091, 1092, 1095, 1094
 343, 1161, 1162, 1165, 1164, 1092, 1093, 1096, 1095
 344, 1162,  718,  719, 1165, 1093,  695,  696, 1096
 345,  512, 1163, 1166,  513,  489, 1094, 1097,  490
 346, 1163, 1164, 1167, 1166, 1094, 1095, 1098, 1097
 347, 1164, 1165, 1168, 1167, 1095, 1096, 1099, 1098
 348, 1165,  719,  720, 1168, 1096,  696,  697, 1099
 349,  513, 1166, 1169,  514,  490, 1097, 1100,  491
 350, 1166, 1167, 1170, 1169, 1097, 1098, 1101, 1100
 351, 1167, 1168, 1171, 1170, 1098, 1099, 1102, 1101
 352, 1168,  720,  721, 1171, 1099,  697,  698, 1102
 353,  514, 1169, 1172,  515,  491, 1100, 1103,  492
 354, 1169, 1170, 1173, 1172, 1100, 1101, 1104, 1103
 355, 1170, 1171, 1174, 1173, 1101, 1102, 1105, 1104
 356, 1171,  721,  722, 1174, 1102,  698,  699, 1105
 357,  515, 1172,  914,  185,  492, 1103,  911,  184
 358, 1172, 1173,  915,  914, 1103, 1104,  912,  911
 359, 1173, 1174,  916,  915, 1104, 1105,  913,  912
 360, 1174,  722,  209,  916, 1105,  699,  210,  913
 361,  199,  890, 1175,  516,  200,  887, 1106,  493
 362,  890,  891, 1176, 1175,  887,  888, 1107, 1106
 363,  891,  892, 1177, 1176,  888,  889, 1108, 1107
 364,  892,  213,  723, 1177,  889,  212,  700, 1108
 365,  516, 1175, 1178,  517,  493, 1106, 1109,  494
 366, 1175, 1176, 1179, 1178, 1106, 1107, 1110, 1109
 367, 1176, 1177, 1180, 1179, 1107, 1108, 1111, 1110
 368, 1177,  723,  724, 1180, 1108,  700,  701, 1111
 369,  517, 1178, 1181,  518,  494, 1109, 1112,  495
 370, 1178, 1179, 1182, 1181, 1109, 1110, 1113, 1112
 371, 1179, 1180, 1183, 1182, 1110, 1111, 1114, 1113
 372, 1180,  724,  725, 1183, 1111,  701,  702, 1114
 373,  518, 1181, 1184,  519,  495, 1112, 1115,  496
 374, 1181, 1182, 1185, 1184, 1112, 1113, 1116, 1115
 375, 1182, 1183, 1186, 1185, 1113, 1114, 1117, 1116
 376, 1183,  725,  726, 1186, 1114,  702,  703, 1117
 377,  519, 1184, 1187,  520,  496, 1115, 1118,  497
 378, 1184, 1185, 1188, 1187, 1115, 1116, 1119, 1118
 379, 1185, 1186, 1189, 1188, 1116, 1117, 1120, 1119
 380, 1186,  726,  727, 1189, 1117,  703,  704, 1120
 381,  520, 1187, 1190,  521,  497, 1118, 1121,  498
 382, 1187, 1188, 1191, 1190, 1118, 1119, 1122, 1121
 383, 1188, 1189, 1192, 1191, 1119, 1120, 1123, 1122
 384, 1189,  727,  728, 1192, 1120,  704,  705, 1123
 385,  521, 1190, 1193,  522,  498, 1121, 1124,  499
 386, 1190, 1191, 1194, 1193, 1121, 1122, 1125, 1124
 387, 1191, 1192, 1195, 1194, 1122, 1123, 1126, 1125
 388, 1192,  728,  729, 1195, 1123,  705,  706, 1126
 389,  522, 1193, 1196,  523,  499, 1124, 1127,  500
 390, 1193, 1194, 1197, 1196, 1124, 1125, 1128, 1127
 391, 1194, 1195, 1198, 1197, 1125, 1126, 1129, 1128
 392, 1195,  729,  730, 1198, 1126,  706,  707, 1129
 393,  523, 1196, 1199,  524,  500, 1127, 1130,  501
 394, 1196, 1197, 1200, 1199, 1127, 1128, 1131, 1130
 395, 1197, 1198, 1201, 1200, 1128, 1129, 1132, 1131
 396, 1198,  730,  731, 1201, 1129,  707,  708, 1132
 397,  524, 1199, 1202,  525,  501, 1130, 1133,  502
 398, 1199, 1200, 1203, 1202, 1130, 1131, 1134, 1133
 399, 1200, 1201, 1204, 1203, 1131, 1132, 1135, 1134
 400, 1201,  731,  732, 1204, 1132,  708,  709, 1135
 401,  525, 1202, 1205,  526,  502, 1133, 1136,  503
 402, 1202, 1203, 1206, 1205, 1133, 1134, 1137, 1136
 403, 1203, 1204, 1207, 1206, 1134, 1135, 1138, 1137
 404, 1204,  732,  733, 1207, 1135,  709,  710, 1138
 405,  526, 1205, 1208,  527,  503, 1136, 1139,  504
 406, 1205, 1206, 1209, 1208, 1136, 1137, 1140, 1139
 407, 1206, 1207, 1210, 1209, 1137, 1138, 1141, 1140
 408, 1207,  733,  734, 1210, 1138,  710,  711, 1141
 409,  527, 1208, 1211,  528,  504, 1139, 1142,  505
 410, 1208, 1209, 1212, 1211, 1139, 1140, 1143, 1142
 411, 1209, 1210, 1213, 1212, 1140, 1141, 1144, 1143
 412, 1210,  734,  735, 1213, 1141,  711,  712, 1144
 413,  528, 1211, 1214,  529,  505, 1142, 1145,  506
 414, 1211, 1212, 1215, 1214, 1142, 1143, 1146, 1145
 415, 1212, 1213, 1216, 1215, 1143, 1144, 1147, 1146
 416, 1213,  735,  736, 1216, 1144,  712,  713, 1147
 417,  529, 1214, 1217,  530,  506, 1145, 1148,  507
 418, 1214, 1215, 1218, 1217, 1145, 1146, 1149, 1148
 419, 1215, 1216, 1219, 1218, 1146, 1147, 1150, 1149
 420, 1216,  736,  737, 1219, 1147,  713,  714, 1150
 421,  530, 1217, 1220,  531,  507, 1148, 1151,  508
 422, 1217, 1218, 1221, 1220, 1148, 1149, 1152, 1151
 423, 1218, 1219, 1222, 1221, 1149, 1150, 1153, 1152
 424, 1219,  737,  738, 1222, 1150,  714,  715, 1153
 425,  531, 1220, 1223,  532,  508, 1151, 1154,  509
 426, 1220, 1221, 1224, 1223, 1151, 1152, 1155, 1154
 427, 1221, 1222, 1225, 1224, 1152, 1153, 1156, 1155
 428, 1222,  738,  739, 1225, 1153,  715,  716, 1156
 429,  532, 1223, 1226,  533,  509, 1154, 1157,  510
 430, 1223, 1224, 1227, 1226, 1154, 1155, 1158, 1157
 431, 1224, 1225, 1228, 1227, 1155, 1156, 1159, 1158
 432, 1225,  739,  740, 1228, 1156,  716,  717, 1159
 433,  533, 1226, 1229,  534,  510, 1157, 1160,  511
 434, 1226, 1227, 1230, 1229, 1157, 1158, 1161, 1160
 435, 1227, 1228, 1231, 1230, 1158, 1159, 1162, 1161
 436, 1228,  740,  741, 1231, 1159,  717,  718, 1162
 437,  534, 1229, 1232,  535,  511, 1160, 1163,  512
 438, 1229, 1230, 1233, 1232, 1160, 1161, 1164, 1163
 439, 1230, 1231, 1234, 1233, 1161, 1162, 1165, 1164
 440, 1231,  741,  742, 1234, 1162,  718,  719, 1165
 441,  535, 1232, 1235,  536,  512, 1163, 1166,  513
 442, 1232, 1233, 1236, 1235, 1163, 1164, 1167, 1166
 443, 1233, 1234, 1237, 1236, 1164, 1165, 1168, 1167
 444, 1234,  742,  743, 1237, 1165,  719,  720, 1168
 445,  536, 1235, 1238,  537,  513, 1166, 1169,  514
 446, 1235, 1236, 1239, 1238, 1166, 1167, 1170, 1169
 447, 1236, 1237, 1240, 1239, 1167, 1168, 1171, 1170
 448, 1237,  743,  744, 1240, 1168,  720,  721, 1171
 449,  537, 1238, 1241,  538,  514, 1169, 1172,  515
 450, 1238, 1239, 1242, 1241, 1169, 1170, 1173, 1172
 451, 1239, 1240, 1243, 1242, 1170, 1171, 1174, 1173
 452, 1240,  744,  745, 1243, 1171,  721,  722, 1174
 453,  538, 1241,  917,  186,  515, 1172,  914,  185
 454, 1241, 1242,  918,  917, 1172, 1173,  915,  914
 455, 1242, 1243,  919,  918, 1173, 1174,  916,  915
 456, 1243,  745,  208,  919, 1174,  722,  209,  916
 457,  198,  893, 1244,  539,  199,  890, 1175,  516
 458,  893,  894, 1245, 1244,  890,  891, 1176, 1175
 459,  894,  895, 1246, 1245,  891,  892, 1177, 1176
 460,  895,  214,  746, 1246,  892,  213,  723, 1177
 461,  539, 1244, 1247,  540,  516, 1175, 1178,  517
 462, 1244, 1245, 1248, 1247, 1175, 1176, 1179, 1178
 463, 1245, 1246, 1249, 1248, 1176, 1177, 1180, 1179
 464, 1246,  746,  747, 1249, 1177,  723,  724, 1180
 465,  540, 1247, 1250,  541,  517, 1178, 1181,  518
 466, 1247, 1248, 1251, 1250, 1178, 1179, 1182, 1181
 467, 1248, 1249, 1252, 1251, 1179, 1180, 1183, 1182
 468, 1249,  747,  748, 1252, 1180,  724,  725, 1183
 469,  541, 1250, 1253,  542,  518, 1181, 1184,  519
 470, 1250, 1251, 1254, 1253, 1181, 1182, 1185, 1184
 471, 1251, 1252, 1255, 1254, 1182, 1183, 1186, 1185
 472, 1252,  748,  749, 1255, 1183,  725,  726, 1186
 473,  542, 1253, 1256,  543,  519, 1184, 1187,  520
 474, 1253, 1254, 1257, 1256, 1184, 1185, 1188, 1187
 475, 1254, 1255, 1258, 1257, 1185, 1186, 1189, 1188
 476, 1255,  749,  750, 1258, 1186,  726,  727, 1189
 477,  543, 1256, 1259,  544,  520, 1187, 1190,  521
 478, 1256, 1257, 1260, 1259, 1187, 1188, 1191, 1190
 479, 1257, 1258, 1261, 1260, 1188, 1189, 1192, 1191
 480, 1258,  750,  751, 1261, 1189,  727,  728, 1192
 481,  544, 1259, 1262,  545,  521, 1190, 1193,  522
 482, 1259, 1260, 1263, 1262, 1190, 1191, 1194, 1193
 483, 1260, 1261, 1264, 1263, 1191, 1192, 1195, 1194
 484, 1261,  751,  752, 1264, 1192,  728,  729, 1195
 485,  545, 1262, 1265,  546,  522, 1193, 1196,  523
 486, 1262, 1263, 1266, 1265, 1193, 1194, 1197, 1196
 487, 1263, 1264, 1267, 1266, 1194, 1195, 1198, 1197
 488, 1264,  752,  753, 1267, 1195,  729,  730, 1198
 489,  546, 1265, 1268,  547,  523, 1196, 1199,  524
 490, 1265, 1266, 1269, 1268, 1196, 1197, 1200, 1199
 491, 1266, 1267, 1270, 1269, 1197, 1198, 1201, 1200
 492, 1267,  753,  754, 1270, 1198,  730,  731, 1201
 493,  547, 1268, 1271,  548,  524, 1199, 1202,  525
 494, 1268, 1269, 1272, 1271, 1199, 1200, 1203, 1202
 495, 1269, 1270, 1273, 1272, 1200, 1201, 1204, 1203
 496, 1270,  754,  755, 1273, 1201,  731,  732, 1204
 497,  548, 1271, 1274,  549,  525, 1202, 1205,  526
 498, 1271, 1272, 1275, 1274, 1202, 1203, 1206, 1205
 499, 1272, 1273, 1276, 1275, 1203, 1204, 1207, 1206
 500, 1273,  755,  756, 1276, 1204,  732,  733, 1207
 501,  549, 1274, 1277,  550,  526, 1205, 1208,  527
 502, 1274, 1275, 1278, 1277, 1205, 1206, 1209, 1208
 503, 1275, 1276, 1279, 1278, 1206, 1207, 1210, 1209
 504, 1276,  756,  757, 1279, 1207,  733,  734, 1210
 505,  550, 1277, 1280,  551,  527, 1208, 1211,  528
 506, 1277, 1278, 1281, 1280, 1208, 1209, 1212, 1211
 507, 1278, 1279, 1282, 1281, 1209, 1210, 1213, 1212
 508, 1279,  757,  758, 1282, 1210,  734,  735, 1213
 509,  551, 1280, 1283,  552,  528, 1211, 1214,  529
 510, 1280, 1281, 1284, 1283, 1211, 1212, 1215, 1214
 511, 1281, 1282, 1285, 1284, 1212, 1213, 1216, 1215
 512, 1282,  758,  759, 1285, 1213,  735,  736, 1216
 513,  552, 1283, 1286,  553,  529, 1214, 1217,  530
 514, 1283, 1284, 1287, 1286, 1214, 1215, 1218, 1217
 515, 1284, 1285, 1288, 1287, 1215, 1216, 1219, 1218
 516, 1285,  759,  760, 1288, 1216,  736,  737, 1219
 517,  553, 1286, 1289,  554,  530, 1217, 1220,  531
 518, 1286, 1287, 1290, 1289, 1217, 1218, 1221, 1220
 519, 1287, 1288, 1291, 1290, 1218, 1219, 1222, 1221
 520, 1288,  760,  761, 1291, 1219,  737,  738, 1222
 521,  554, 1289, 1292,  555,  531, 1220, 1223,  532
 522, 1289, 1290, 1293, 1292, 1220, 1221, 1224, 1223
 523, 1290, 1291, 1294, 1293, 1221, 1222, 1225, 1224
 524, 1291,  761,  762, 1294, 1222,  738,  739, 1225
 525,  555, 1292, 1295,  556,  532, 1223, 1226,  533
 526, 1292, 1293, 1296, 1295, 1223, 1224, 1227, 1226
 527, 1293, 1294, 1297, 1296, 1224, 1225, 1228, 1227
 528, 1294,  762,  763, 1297, 1225,  739,  740, 1228
 529,  556, 1295, 1298,  557,  533, 1226, 1229,  534
 530, 1295, 1296, 1299, 1298, 1226, 1227, 1230, 1229
 531, 1296, 1297, 1300, 1299, 1227, 1228, 1231, 1230
 532, 1297,  763,  764, 1300, 1228,  740,  741, 1231
 533,  557, 1298, 1301,  558,  534, 1229, 1232,  535
 534, 1298, 1299, 1302, 1301, 1229, 1230, 1233, 1232
 535, 1299, 1300, 1303, 1302, 1230, 1231, 1234, 1233
 536, 1300,  764,  765, 1303, 1231,  741,  742, 1234
 537,  558, 1301, 1304,  559,  535, 1232, 1235,  536
 538, 1301, 1302, 1305, 1304, 1232, 1233, 1236, 1235
 539, 1302, 1303, 1306, 1305, 1233, 1234, 1237, 1236
 540, 1303,  765,  766, 1306, 1234,  742,  743, 1237
 541,  559, 1304, 1307,  560,  536, 1235, 1238,  537
 542, 1304, 1305, 1308, 1307, 1235, 1236, 1239, 1238
 543, 1305, 1306, 1309, 1308, 1236, 1237, 1240, 1239
 544, 1306,  766,  767, 1309, 1237,  743,  744, 1240
 545,  560, 1307, 1310,  561,  537, 1238, 1241,  538
 546, 1307, 1308, 1311, 1310, 1238, 1239, 1242, 1241
 547, 1308, 1309, 1312, 1311, 1239, 1240, 1243, 1242
 548, 1309,  767,  768, 1312, 1240,  744,  745, 1243
 549,  561, 1310,  920,  187,  538, 1241,  917,  186
 550, 1310, 1311,  921,  920, 1241, 1242,  918,  917
 551, 1311, 1312,  922,  921, 1242, 1243,  919,  918
 552, 1312,  768,  207,  922, 1243,  745,  208,  919
 553,  197,  896, 1313,  562,  198,  893, 1244,  539
 554,  896,  897, 1314, 1313,  893,  894, 1245, 1244
 555,  897,  898, 1315, 1314,  894,  895, 1246, 1245
 556,  898,  215,  769, 1315,  895,  214,  746, 1246
 557,  562, 1313, 1316,  563,  539, 1244, 1247,  540
 558, 1313, 1314, 1317, 1316, 1244, 1245, 1248, 1247
 559, 1314, 1315, 1318, 1317, 1245, 1246, 1249, 1248
 560, 1315,  769,  770, 1318, 1246,  746,  747, 1249
 561,  563, 1316, 1319,  564,  540, 1247, 1250,  541
 562, 1316, 1317, 1320, 1319, 1247, 1248, 1251, 1250
 563, 1317, 1318, 1321, 1320, 1248, 1249, 1252, 1251
 564, 1318,  770,  771, 1321, 1249,  747,  748, 1252
 565,  564, 1319, 1322,  565,  541, 1250, 1253,  542
 566, 1319, 1320, 1323, 1322, 1250, 1251, 1254, 1253
 567, 1320, 1321, 1324, 1323, 1251, 1252, 1255, 1254
 568, 1321,  771,  772, 1324, 1252,  748,  749, 1255
 569,  565, 1322, 1325,  566,  542, 1253, 1256,  543
 570, 1322, 1323, 1326, 1325, 1253, 1254, 1257, 1256
 571, 1323, 1324, 1327, 1326, 1254, 1255, 1258, 1257
 572, 1324,  772,  773, 1327, 1255,  749,  750, 1258
 573,  566, 1325, 1328,  567,  543, 1256, 1259,  544
 574, 1325, 1326, 1329, 1328, 1256, 1257, 1260, 1259
 575, 1326, 1327, 1330, 1329, 1257, 1258, 1261, 1260
 576, 1327,  773,  774, 1330, 1258,  750,  751, 1261
 577,  567, 1328, 1331,  568,  544, 1259, 1262,  545
 578, 1328, 1329, 1332, 1331, 1259, 1260, 1263, 1262
 579, 1329, 1330, 1333, 1332, 1260, 1261, 1264, 1263
 580, 1330,  774,  775, 1333, 1261,  751,  752, 1264
 581,  568, 1331, 1334,  569,  545, 1262, 1265,  546
 582, 1331, 1332, 1335, 1334, 1262, 1263, 1266, 1265
 583, 1332, 1333, 1336, 1335, 1263, 1264, 1267, 1266
 584, 1333,  775,  776, 1336, 1264,  752,  753, 1267
 585,  569, 1334, 1337,  570,  546, 1265, 1268,  547
 586, 1334, 1335, 1338, 1337, 1265, 1266, 1269, 1268
 587, 1335, 1336, 1339, 1338, 1266, 1267, 1270, 1269
 588, 1336,  776,  777, 1339, 1267,  753,  754, 1270
 589,  570, 1337, 1340,  571,  547, 1268, 1271,  548
 590, 1337, 1338, 1341, 1340, 1268, 1269, 1272, 1271
 591, 1338, 1339, 1342, 1341, 1269, 1270, 1273, 1272
 592, 1339,  777,  778, 1342, 1270,  754,  755, 1273
 593,  571, 1340, 1343,  572,  548, 1271, 1274,  549
 594, 1340, 1341, 1344, 1343, 1271, 1272, 1275, 1274
 595, 1341, 1342, 1345, 1344, 1272, 1273, 1276, 1275
 596, 1342,  778,  779, 1345, 1273,  755,  756, 1276
 597,  572, 1343, 1346,  573,  549, 1274, 1277,  550
 598, 1343, 1344, 1347, 1346, 1274, 1275, 1278, 1277
 599, 1344, 1345, 1348, 1347, 1275, 1276, 1279, 1278
 600, 1345,  779,  780, 1348, 1276,  756,  757, 1279
 601,  573, 1346, 1349,  574,  550, 1277, 1280,  551
 602, 1346, 1347, 1350, 1349, 1277, 1278, 1281, 1280
 603, 1347, 1348, 1351, 1350, 1278, 1279, 1282, 1281
 604, 1348,  780,  781, 1351, 1279,  757,  758, 1282
 605,  574, 1349, 1352,  575,  551, 1280, 1283,  552
 606, 1349, 1350, 1353, 1352, 1280, 1281, 1284, 1283
 607, 1350, 1351, 1354, 1353, 1281, 1282, 1285, 1284
 608, 1351,  781,  782, 1354, 1282,  758,  759, 1285
 609,  575, 1352, 1355,  576,  552, 1283, 1286,  553
 610, 1352, 1353, 1356, 1355, 1283, 1284, 1287, 1286
 611, 1353, 1354, 1357, 1356, 1284, 1285, 1288, 1287
 612, 1354,  782,  783, 1357, 1285,  759,  760, 1288
 613,  576, 1355, 1358,  577,  553, 1286, 1289,  554
 614, 1355, 1356, 1359, 1358, 1286, 1287, 1290, 1289
 615, 1356, 1357, 1360, 1359, 1287, 1288, 1291, 1290
 616, 1357,  783,  784, 1360, 1288,  760,  761, 1291
 617,  577, 1358, 1361,  578,  554, 1289, 1292,  555
 618, 1358, 1359, 1362, 1361, 1289, 1290, 1293, 1292
 619, 1359, 1360, 1363, 1362, 1290, 1291, 1294, 1293
 620, 1360,  784,  785, 1363, 1291,  761,  762, 1294
 621,  578, 1361, 1364,  579,  555, 1292, 1295,  556
 622, 1361, 1362, 1365, 1364, 1292, 1293, 1296, 1295
 623, 1362, 1363, 1366, 1365, 1293, 1294, 1297, 1296
 624, 1363,  785,  786, 1366, 1294,  762,  763, 1297
 625,  579, 1364, 1367,  580,  556, 1295, 1298,  557
 626, 1364, 1365, 1368, 1367, 1295, 1296, 1299, 1298
 627, 1365, 1366, 1369, 1368, 1296, 1297, 1300, 1299
 628, 1366,  786,  787, 1369, 1297,  763,  764, 1300
 629,  580, 1367, 1370,  581,  557, 1298, 1301,  558
 630, 1367, 1368, 1371, 1370, 1298, 1299, 1302, 1301
 631, 1368, 1369, 1372, 1371, 1299, 1300, 1303, 1302
 632, 1369,  787,  788, 1372, 1300,  764,  765, 1303
 633,  581, 1370, 1373,  582,  558, 1301, 1304,  559
 634, 1370, 1371, 1374, 1373, 1301, 1302, 1305, 1304
 635, 1371, 1372, 1375, 1374, 1302, 1303, 1306, 1305
 636, 1372,  788,  789, 1375, 1303,  765,  766, 1306
 637,  582, 1373, 1376,  583,  559, 1304, 1307,  560
 638, 1373, 1374, 1377, 1376, 1304, 1305, 1308, 1307
 639, 1374, 1375, 1378, 1377, 1305, 1306, 1309, 1308
 640, 1375,  789,  790, 1378, 1306,  766,  767, 1309
 641,  583, 1376, 1379,  584,  560, 1307, 1310,  561
 642, 1376, 1377, 1380, 1379, 1307, 1308, 1311, 1310
 643, 1377, 1378, 1381, 1380, 1308, 1309, 1312, 1311
 644, 1378,  790,  791, 1381, 1309,  767,  768, 1312
 645,  584, 1379,  923,  188,  561, 1310,  920,  187
 646, 1379, 1380,  924,  923, 1310, 1311,  921,  920
 647, 1380, 1381,  925,  924, 1311, 1312,  922,  921
 648, 1381,  791,  206,  925, 1312,  768,  207,  922
 649,  196,  899, 1382,  585,  197,  896, 1313,  562
 650,  899,  900, 1383, 1382,  896,  897, 1314, 1313
 651,  900,  901, 1384, 1383,  897,  898, 1315, 1314
 652,  901,  216,  792, 1384,  898,  215,  769, 1315
 653,  585, 1382, 1385,  586,  562, 1313, 1316,  563
 654, 1382, 1383, 1386, 1385, 1313, 1314, 1317, 1316
 655, 1383, 1384, 1387, 1386, 1314, 1315, 1318, 1317
 656, 1384,  792,  793, 1387, 1315,  769,  770, 1318
 657,  586, 1385, 1388,  587,  563, 1316, 1319,  564
 658, 1385, 1386, 1389, 1388, 1316, 1317, 1320, 1319
 659, 1386, 1387, 1390, 1389, 1317, 1318, 1321, 1320
 660, 1387,  793,  794, 1390, 1318,  770,  771, 1321
 661,  587, 1388, 1391,  588,  564, 1319, 1322,  565
 662, 1388, 1389, 1392, 1391, 1319, 1320, 1323, 1322
 663, 1389, 1390, 1393, 1392, 1320, 1321, 1324, 1323
 664, 1390,  794,  795, 1393, 1321,  771,  772, 1324
 665,  588, 1391, 1394,  589,  565, 1322, 1325,  566
 666, 1391, 1392, 1395, 1394, 1322, 1323, 1326, 1325
 667, 1392, 1393, 1396, 1395, 1323, 1324, 1327, 1326
 668, 1393,  795,  796, 1396, 1324,  772,  773, 1327
 669,  589, 1394, 1397,  590,  566, 1325, 1328,  567
 670, 1394, 1395, 1398, 1397, 1325, 1326, 1329, 1328
 671, 1395, 1396, 1399, 1398, 1326, 1327, 1330, 1329
 672, 1396,  796,  797, 1399, 1327,  773,  774, 1330
 673,  590, 1397, 1400,  591,  567, 1328, 1331,  568
 674, 1397, 1398, 1401, 1400, 1328, 1329, 1332, 1331
 675, 1398, 1399, 1402, 1401, 1329, 1330, 1333, 1332
 676, 1399,  797,  798, 1402, 1330,  774,  775, 1333
 677,  591, 1400, 1403,  592,  568, 1331, 1334,  569
 678, 1400, 1401, 1404, 1403, 1331, 1332, 1335, 1334
 679, 1401, 1402, 1405, 1404, 1332, 1333, 1336, 1335
 680, 1402,  798,  799, 1405, 1333,  775,  776, 1336
 681,  592, 1403, 1406,  593,  569, 1334, 1337,  570
 682, 1403, 1404, 1407, 1406, 1334, 1335, 1338, 1337
 683, 1404, 1405, 1408, 1407, 1335, 1336, 1339, 1338
 684, 1405,  799,  800, 1408, 1336,  776,  777, 1339
 685,  593, 1406, 1409,  594,  570, 1337, 1340,  571
 686, 1406, 1407, 1410, 1409, 1337, 1338, 1341, 1340
 687, 1407, 1408, 1411, 1410, 1338, 1339, 1342, 1341
 688, 1408,  800,  801, 1411, 1339,  777,  778, 1342
 689,  594, 1409, 1412,  595,  571, 1340, 1343,  572
 690, 1409, 1410, 1413, 1412, 1340, 1341, 1344, 1343
 691, 1410, 1411, 1414, 1413, 1341, 1342, 1345, 1344
 692, 1411,  801,  802, 1414, 1342,  778,  779, 1345
 693,  595, 1412, 1415,  596,  572, 1343, 1346,  573
 694, 1412, 1413, 1416, 1415, 1343, 1344, 1347, 1346
 695, 1413, 1414, 1417, 1416, 1344, 1345, 1348, 1347
 696, 1414,  802,  803, 1417, 1345,  779,  780, 1348
 697,  596, 1415, 1418,  597,  573, 1346, 1349,  574
 698, 1415, 1416, 1419, 1418, 1346, 1347, 1350, 1349
 699, 1416, 1417, 1420, 1419, 1347, 1348, 1351, 1350
 700, 1417,  803,  804, 1420, 1348,  780,  781, 1351
 701,  597, 1418, 1421,  598,  574, 1349, 1352,  575
 702, 1418, 1419, 1422, 1421, 1349, 1350, 1353, 1352
 703, 1419, 1420, 1423, 1422, 1350, 1351, 1354, 1353
 704, 1420,  804,  805, 1423, 1351,  781,  782, 1354
 705,  598, 1421, 1424,  599,  575, 1352, 1355,  576
 706, 1421, 1422, 1425, 1424, 1352, 1353, 1356, 1355
 707, 1422, 1423, 1426, 1425, 1353, 1354, 1357, 1356
 708, 1423,  805,  806, 1426, 1354,  782,  783, 1357
 709,  599, 1424, 1427,  600,  576, 1355, 1358,  577
 710, 1424, 1425, 1428, 1427, 1355, 1356, 1359, 1358
 711, 1425, 1426, 1429, 1428, 1356, 1357, 1360, 1359
 712, 1426,  806,  807, 1429, 1357,  783,  784, 1360
 713,  600, 1427, 1430,  601,  577, 1358, 1361,  578
 714, 1427, 1428, 1431, 1430, 1358, 1359, 1362, 1361
 715, 1428, 1429, 1432, 1431, 1359, 1360, 1363, 1362
 716, 1429,  807,  808, 1432, 1360,  784,  785, 1363
 717,  601, 1430, 1433,  602,  578, 1361, 1364,  579
 718, 1430, 1431, 1434, 1433, 1361, 1362, 1365, 1364
 719, 1431, 1432, 1435, 1434, 1362, 1363, 1366, 1365
 720, 1432,  808,  809, 1435, 1363,  785,  786, 1366
 721,  602, 1433, 1436,  603,  579, 1364, 1367,  580
 722, 1433, 1434, 1437, 1436, 1364, 1365, 1368, 1367
 723, 1434, 1435, 1438, 1437, 1365, 1366, 1369, 1368
 724, 1435,  809,  810, 1438, 1366,  786,  787, 1369
 725,  603, 1436, 1439,  604,  580, 1367, 1370,  581
 726, 1436, 1437, 1440, 1439, 1367, 1368, 1371, 1370
 727, 1437, 1438, 1441, 1440, 1368, 1369, 1372, 1371
 728, 1438,  810,  811, 1441, 1369,  787,  788, 1372
 729,  604, 1439, 1442,  605,  581, 1370, 1373,  582
 730, 1439, 1440, 1443, 1442, 1370, 1371, 1374, 1373
 731, 1440, 1441, 1444, 1443, 1371, 1372, 1375, 1374
 732, 1441,  811,  812, 1444, 1372,  788,  789, 1375
 733,  605, 1442, 1445,  606,  582, 1373, 1376,  583
 734, 1442, 1443, 1446, 1445, 1373, 1374, 1377, 1376
 735, 1443, 1444, 1447, 1446, 1374, 1375, 1378, 1377
 736, 1444,  812,  813, 1447, 1375,  789,  790, 1378
 737,  606, 1445, 1448,  607,  583, 1376, 1379,  584
 738, 1445, 1446, 1449, 1448, 1376, 1377, 1380, 1379
 739, 1446, 1447, 1450, 1449, 1377, 1378, 1381, 1380
 740, 1447,  813,  814, 1450, 1378,  790,  791, 1381
 741,  607, 1448,  926,  189,  584, 1379,  923,  188
 742, 1448, 1449,  927,  926, 1379, 1380,  924,  923
 743, 1449, 1450,  928,  927, 1380, 1381,  925,  924
 744, 1450,  814,  205,  928, 1381,  791,  206,  925
 745,  195,  902, 1451,  608,  196,  899, 1382,  585
 746,  902,  903, 1452, 1451,  899,  900, 1383, 1382
 747,  903,  904, 1453, 1452,  900,  901, 1384, 1383
 748,  904,  217,  815, 1453,  901,  216,  792, 1384
 749,  608, 1451, 1454,  609,  585, 1382, 1385,  586
 750, 1451, 1452, 1455, 1454, 1382, 1383, 1386, 1385
 751, 1452, 1453, 1456, 1455, 1383, 1384, 1387, 1386
 752, 1453,  815,  816, 1456, 1384,  792,  793, 1387
 753,  609, 1454, 1457,  610,  586, 1385, 1388,  587
 754, 1454, 1455, 1458, 1457, 1385, 1386, 1389, 1388
 755, 1455, 1456, 1459, 1458, 1386, 1387, 1390, 1389
 756, 1456,  816,  817, 1459, 1387,  793,  794, 1390
 757,  610, 1457, 1460,  611,  587, 1388, 1391,  588
 758, 1457, 1458, 1461, 1460, 1388, 1389, 1392, 1391
 759, 1458, 1459, 1462, 1461, 1389, 1390, 1393, 1392
 760, 1459,  817,  818, 1462, 1390,  794,  795, 1393
 761,  611, 1460, 1463,  612,  588, 1391, 1394,  589
 762, 1460, 1461, 1464, 1463, 1391, 1392, 1395, 1394
 763, 1461, 1462, 1465, 1464, 1392, 1393, 1396, 1395
 764, 1462,  818,  819, 1465, 1393,  795,  796, 1396
 765,  612, 1463, 1466,  613,  589, 1394, 1397,  590
 766, 1463, 1464, 1467, 1466, 1394, 1395, 1398, 1397
 767, 1464, 1465, 1468, 1467, 1395, 1396, 1399, 1398
 768, 1465,  819,  820, 1468, 1396,  796,  797, 1399
 769,  613, 1466, 1469,  614,  590, 1397, 1400,  591
 770, 1466, 1467, 1470, 1469, 1397, 1398, 1401, 1400
 771, 1467, 1468, 1471, 1470, 1398, 1399, 1402, 1401
 772, 1468,  820,  821, 1471, 1399,  797,  798, 1402
 773,  614, 1469, 1472,  615,  591, 1400, 1403,  592
 774, 1469, 1470, 1473, 1472, 1400, 1401, 1404, 1403
 775, 1470, 1471, 1474, 1473, 1401, 1402, 1405, 1404
 776, 1471,  821,  822, 1474, 1402,  798,  799, 1405
 777,  615, 1472, 1475,  616,  592, 1403, 1406,  593
 778, 1472, 1473, 1476, 1475, 1403, 1404, 1407, 1406
 779, 1473, 1474, 1477, 1476, 1404, 1405, 1408, 1407
 780, 1474,  822,  823, 1477, 1405,  799,  800, 1408
 781,  616, 1475, 1478,  617,  593, 1406, 1409,  594
 782, 1475, 1476, 1479, 1478, 1406, 1407, 1410, 1409
 783, 1476, 1477, 1480, 1479, 1407, 1408, 1411, 1410
 784, 1477,  823,  824, 1480, 1408,  800,  801, 1411
 785,  617, 1478, 1481,  618,  594, 1409, 1412,  595
 786, 1478, 1479, 1482, 1481, 1409, 1410, 1413, 1412
 787, 1479, 1480, 1483, 1482, 1410, 1411, 1414, 1413
 788, 1480,  824,  825, 1483, 1411,  801,  802, 1414
 789,  618, 1481, 1484,  619,  595, 1412, 1415,  596
 790, 1481, 1482, 1485, 1484, 1412, 1413, 1416, 1415
 791, 1482, 1483, 1486, 1485, 1413, 1414, 1417, 1416
 792, 1483,  825,  826, 1486, 1414,  802,  803, 1417
 793,  619, 1484, 1487,  620,  596, 1415, 1418,  597
 794, 1484, 1485, 1488, 1487, 1415, 1416, 1419, 1418
 795, 1485, 1486, 1489, 1488, 1416, 1417, 1420, 1419
 796, 1486,  826,  827, 1489, 1417,  803,  804, 1420
 797,  620, 1487, 1490,  621,  597, 1418, 1421,  598
 798, 1487, 1488, 1491, 1490, 1418, 1419, 1422, 1421
 799, 1488, 1489, 1492, 1491, 1419, 1420, 1423, 1422
 800, 1489,  827,  828, 1492, 1420,  804,  805, 1423
 801,  621, 1490, 1493,  622,  598, 1421, 1424,  599
 802, 1490, 1491, 1494, 1493, 1421, 1422, 1425, 1424
 803, 1491, 1492, 1495, 1494, 1422, 1423, 1426, 1425
 804, 1492,  828,  829, 1495, 1423,  805,  806, 1426
 805,  622, 1493, 1496,  623,  599, 1424, 1427,  600
 806, 1493, 1494, 1497, 1496, 1424, 1425, 1428, 1427
 807, 1494, 1495, 1498, 1497, 1425, 1426, 1429, 1428
 808, 1495,  829,  830, 1498, 1426,  806,  807, 1429
 809,  623, 1496, 1499,  624,  600, 1427, 1430,  601
 810, 1496, 1497, 1500, 1499, 1427, 1428, 1431, 1430
 811, 1497, 1498, 1501, 1500, 1428, 1429, 1432, 1431
 812, 1498,  830,  831, 1501, 1429,  807,  808, 1432
 813,  624, 1499, 1502,  625,  601, 1430, 1433,  602
 814, 1499, 1500, 1503, 1502, 1430, 1431, 1434, 1433
 815, 1500, 1501, 1504, 1503, 1431, 1432, 1435, 1434
 816, 1501,  831,  832, 1504, 1432,  808,  809, 1435
 817,  625, 1502, 1505,  626,  602, 1433, 1436,  603
 818, 1502, 1503, 1506, 1505, 1433, 1434, 1437, 1436
 819, 1503, 1504, 1507, 1506, 1434, 1435, 1438, 1437
 820, 1504,  832,  833, 1507, 1435,  809,  810, 1438
 821,  626, 1505, 1508,  627,  603, 1436, 1439,  604
 822, 1505, 1506, 1509, 1508, 1436, 1437, 1440, 1439
 823, 1506, 1507, 1510, 1509, 1437, 1438, 1441, 1440
 824, 1507,  833,  834, 1510, 1438,  810,  811, 1441
 825,  627, 1508, 1511,  628,  604, 1439, 1442,  605
 826, 1508, 1509, 1512, 1511, 1439, 1440, 1443, 1442
 827, 1509, 1510, 1513, 1512, 1440, 1441, 1444, 1443
 828, 1510,  834,  835, 1513, 1441,  811,  812, 1444
 829,  628, 1511, 1514,  629,  605, 1442, 1445,  606
 830, 1511, 1512, 1515, 1514, 1442, 1443, 1446, 1445
 831, 1512, 1513, 1516, 1515, 1443, 1444, 1447, 1446
 832, 1513,  835,  836, 1516, 1444,  812,  813, 1447
 833,  629, 1514, 1517,  630,  606, 1445, 1448,  607
 834, 1514, 1515, 1518, 1517, 1445, 1446, 1449, 1448
 835, 1515, 1516, 1519, 1518, 1446, 1447, 1450, 1449
 836, 1516,  836,  837, 1519, 1447,  813,  814, 1450
 837,  630, 1517,  929,  190,  607, 1448,  926,  189
 838, 1517, 1518,  930,  929, 1448, 1449,  927,  926
 839, 1518, 1519,  931,  930, 1449, 1450,  928,  927
 840, 1519,  837,  204,  931, 1450,  814,  205,  928
 841,  194,  905, 1520,  631,  195,  902, 1451,  608
 842,  905,  906, 1521, 1520,  902,  903, 1452, 1451
 843,  906,  907, 1522, 1521,  903,  904, 1453, 1452
 844,  907,  218,  838, 1522,  904,  217,  815, 1453
 845,  631, 1520, 1523,  632,  608, 1451, 1454,  609
 846, 1520, 1521, 1524, 1523, 1451, 1452, 1455, 1454
 847, 1521, 1522, 1525, 1524, 1452, 1453, 1456, 1455
 848, 1522,  838,  839, 1525, 1453,  815,  816, 1456
 849,  632, 1523, 1526,  633,  609, 1454, 1457,  610
 850, 1523, 1524, 1527, 1526, 1454, 1455, 1458, 1457
 851, 1524, 1525, 1528, 1527, 1455, 1456, 1459, 1458
 852, 1525,  839,  840, 1528, 1456,  816,  817, 1459
 853,  633, 1526, 1529,  634,  610, 1457, 1460,  611
 854, 1526, 1527, 1530, 1529, 1457, 1458, 1461, 1460
 855, 1527, 1528, 1531, 1530, 1458, 1459, 1462, 1461
 856, 1528,  840,  841, 1531, 1459,  817,  818, 1462
 857,  634, 1529, 1532,  635,  611, 1460, 1463,  612
 858, 1529, 1530, 1533, 1532, 1460, 1461, 1464, 1463
 859, 1530, 1531, 1534, 1533, 1461, 1462, 1465, 1464
 860, 1531,  841,  842, 1534, 1462,  818,  819, 1465
 861,  635, 1532, 1535,  636,  612, 1463, 1466,  613
 862, 1532, 1533, 1536, 1535, 1463, 1464, 1467, 1466
 863, 1533, 1534, 1537, 1536, 1464, 1465, 1468, 1467
 864, 1534,  842,  843, 1537, 1465,  819,  820, 1468
 865,  636, 1535, 1538,  637,  613, 1466, 1469,  614
 866, 1535, 1536, 1539, 1538, 1466, 1467, 1470, 1469
 867, 1536, 1537, 1540, 1539, 1467, 1468, 1471, 1470
 868, 1537,  843,  844, 1540, 1468,  820,  821, 1471
 869,  637, 1538, 1541,  638,  614, 1469, 1472,  615
 870, 1538, 1539, 1542, 1541, 1469, 1470, 1473, 1472
 871, 1539, 1540, 1543, 1542, 1470, 1471, 1474, 1473
 872, 1540,  844,  845, 1543, 1471,  821,  822, 1474
 873,  638, 1541, 1544,  639,  615, 1472, 1475,  616
 874, 1541, 1542, 1545, 1544, 1472, 1473, 1476, 1475
 875, 1542, 1543, 1546, 1545, 1473, 1474, 1477, 1476
 876, 1543,  845,  846, 1546, 1474,  822,  823, 1477
 877,  639, 1544, 1547,  640,  616, 1475, 1478,  617
 878, 1544, 1545, 1548, 1547, 1475, 1476, 1479, 1478
 879, 1545, 1546, 1549, 1548, 1476, 1477, 1480, 1479
 880, 1546,  846,  847, 1549, 1477,  823,  824, 1480
 881,  640, 1547, 1550,  641,  617, 1478, 1481,  618
 882, 1547, 1548, 1551, 1550, 1478, 1479, 1482, 1481
 883, 1548, 1549, 1552, 1551, 1479, 1480, 1483, 1482
 884, 1549,  847,  848, 1552, 1480,  824,  825, 1483
 885,  641, 1550, 1553,  642,  618, 1481, 1484,  619
 886, 1550, 1551, 1554, 1553, 1481, 1482, 1485, 1484
 887, 1551, 1552, 1555, 1554, 1482, 1483, 1486, 1485
 888, 1552,  848,  849, 1555, 1483,  825,  826, 1486
 889,  642, 1553, 1556,  643,  619, 1484, 1487,  620
 890, 1553, 1554, 1557, 1556, 1484, 1485, 1488, 1487
 891, 1554, 1555, 1558, 1557, 1485, 1486, 1489, 1488
 892, 1555,  849,  850, 1558, 1486,  826,  827, 1489
 893,  643, 1556, 1559,  644,  620, 1487, 1490,  621
 894, 1556, 1557, 1560, 1559, 1487, 1488, 1491, 1490
 895, 1557, 1558, 1561, 1560, 1488, 1489, 1492, 1491
 896, 1558,  850,  851, 1561, 1489,  827,  828, 1492
 897,  644, 1559, 1562,  645,  621, 1490, 1493,  622
 898, 1559, 1560, 1563, 1562, 1490, 1491, 1494, 1493
 899, 1560, 1561, 1564, 1563, 1491, 1492, 1495, 1494
 900, 1561,  851,  852, 1564, 1492,  828,  829, 1495
 901,  645, 1562, 1565,  646,  622, 1493, 1496,  623
 902, 1562, 1563, 1566, 1565, 1493, 1494, 1497, 1496
 903, 1563, 1564, 1567, 1566, 1494, 1495, 1498, 1497
 904, 1564,  852,  853, 1567, 1495,  829,  830, 1498
 905,  646, 1565, 1568,  647,  623, 1496, 1499,  624
 906, 1565, 1566, 1569, 1568, 1496, 1497, 1500, 1499
 907, 1566, 1567, 1570, 1569, 1497, 1498, 1501, 1500
 908, 1567,  853,  854, 1570, 1498,  830,  831, 1501
 909,  647, 1568, 1571,  648,  624, 1499, 1502,  625
 910, 1568, 1569, 1572, 1571, 1499, 1500, 1503, 1502
 911, 1569, 1570, 1573, 1572, 1500, 1501, 1504, 1503
 912, 1570,  854,  855, 1573, 1501,  831,  832, 1504
 913,  648, 1571, 1574,  649,  625, 1502, 1505,  626
 914, 1571, 1572, 1575, 1574, 1502, 1503, 1506, 1505
 915, 1572, 1573, 1576, 1575, 1503, 1504, 1507, 1506
 916, 1573,  855,  856, 1576, 1504,  832,  833, 1507
 917,  649, 1574, 1577,  650,  626, 1505, 1508,  627
 918, 1574, 1575, 1578, 1577, 1505, 1506, 1509, 1508
 919, 1575, 1576, 1579, 1578, 1506, 1507, 1510, 1509
 920, 1576,  856,  857, 1579, 1507,  833,  834, 1510
 921,  650, 1577, 1580,  651,  627, 1508, 1511,  628
 922, 1577, 1578, 1581, 1580, 1508, 1509, 1512, 1511
 923, 1578, 1579, 1582, 1581, 1509, 1510, 1513, 1512
 924, 1579,  857,  858, 1582, 1510,  834,  835, 1513
 925,  651, 1580, 1583,  652,  628, 1511, 1514,  629
 926, 1580, 1581, 1584, 1583, 1511, 1512, 1515, 1514
 927, 1581, 1582, 1585, 1584, 1512, 1513, 1516, 1515
 928, 1582,  858,  859, 1585, 1513,  835,  836, 1516
 929,  652, 1583, 1586,  653,  629, 1514, 1517,  630
 930, 1583, 1584, 1587, 1586, 1514, 1515, 1518, 1517
 931, 1584, 1585, 1588, 1587, 1515, 1516, 1519, 1518
 932, 1585,  859,  860, 1588, 1516,  836,  837, 1519
 933,  653, 1586,  932,  191,  630, 1517,  929,  190
 934, 1586, 1587,  933,  932, 1517, 1518,  930,  929
 935, 1587, 1588,  934,  933, 1518, 1519,  931,  930
 936, 1588,  860,  203,  934, 1519,  837,  204,  931
 937,  193,  908, 1589,  654,  194,  905, 1520,  631
 938,  908,  909, 1590, 1589,  905,  906, 1521, 1520
 939,  909,  910, 1591, 1590,  906,  907, 1522, 1521
 940,  910,  219,  861, 1591,  907,  218,  838, 1522
 941,  654, 1589, 1592,  655,  631, 1520, 1523,  632
 942, 1589, 1590, 1593, 1592, 1520, 1521, 1524, 1523
 943, 1590, 1591, 1594, 1593, 1521, 1522, 1525, 1524
 944, 1591,  861,  862, 1594, 1522,  838,  839, 1525
 945,  655, 1592, 1595,  656,  632, 1523, 1526,  633
 946, 1592, 1593, 1596, 1595, 1523, 1524, 1527, 1526
 947, 1593, 1594, 1597, 1596, 1524, 1525, 1528, 1527
 948, 1594,  862,  863, 1597, 1525,  839,  840, 1528
 949,  656, 1595, 1598,  657,  633, 1526, 1529,  634
 950, 1595, 1596, 1599, 1598, 1526, 1527, 1530, 1529
 951, 1596, 1597, 1600, 1599, 1527, 1528, 1531, 1530
 952, 1597,  863,  864, 1600, 1528,  840,  841, 1531
 953,  657, 1598, 1601,  658,  634, 1529, 1532,  635
 954, 1598, 1599, 1602, 1601, 1529, 1530, 1533, 1532
 955, 1599, 1600, 1603, 1602, 1530, 1531, 1534, 1533
 956, 1600,  864,  865, 1603, 1531,  841,  842, 1534
 957,  658, 1601, 1604,  659,  635, 1532, 1535,  636
 958, 1601, 1602, 1605, 1604, 1532, 1533, 1536, 1535
 959, 1602, 1603, 1606, 1605, 1533, 1534, 1537, 1536
 960, 1603,  865,  866, 1606, 1534,  842,  843, 1537
 961,  659, 1604, 1607,  660,  636, 1535, 1538,  637
 962, 1604, 1605, 1608, 1607, 1535, 1536, 1539, 1538
 963, 1605, 1606, 1609, 1608, 1536, 1537, 1540, 1539
 964, 1606,  866,  867, 1609, 1537,  843,  844, 1540
 965,  660, 1607, 1610,  661,  637, 1538, 1541,  638
 966, 1607, 1608, 1611, 1610, 1538, 1539, 1542, 1541
 967, 1608, 1609, 1612, 1611, 1539, 1540, 1543, 1542
 968, 1609,  867,  868, 1612, 1540,  844,  845, 1543
 969,  661, 1610, 1613,  662,  638, 1541, 1544,  639
 970, 1610, 1611, 1614, 1613, 1541, 1542, 1545, 1544
 971, 1611, 1612, 1615, 1614, 1542, 1543, 1546, 1545
 972, 1612,  868,  869, 1615, 1543,  845,  846, 1546
 973,  662, 1613, 1616,  663,  639, 1544, 1547,  640
 974, 1613, 1614, 1617, 1616, 1544, 1545, 1548, 1547
 975, 1614, 1615, 1618, 1617, 1545, 1546, 1549, 1548
 976, 1615,  869,  870, 1618, 1546,  846,  847, 1549
 977,  663, 1616, 1619,  664,  640, 1547, 1550,  641
 978, 1616, 1617, 1620, 1619, 1547, 1548, 1551, 1550
 979, 1617, 1618, 1621, 1620, 1548, 1549, 1552, 1551
 980, 1618,  870,  871, 1621, 1549,  847,  848, 1552
 981,  664, 1619, 1622,  665,  641, 1550, 1553,  642
 982, 1619, 1620, 1623, 1622, 1550, 1551, 1554, 1553
 983, 1620, 1621, 1624, 1623, 1551, 1552, 1555, 1554
 984, 1621,  871,  872, 1624, 1552,  848,  849, 1555
 985,  665, 1622, 1625,  666,  642, 1553, 1556,  643
 986, 1622, 1623, 1626, 1625, 1553, 1554, 1557, 1556
 987, 1623, 1624, 1627, 1626, 1554, 1555, 1558, 1557
 988, 1624,  872,  873, 1627, 1555,  849,  850, 1558
 989,  666, 1625, 1628,  667,  643, 1556, 1559,  644
 990, 1625, 1626, 1629, 1628, 1556, 1557, 1560, 1559
 991, 1626, 1627, 1630, 1629, 1557, 1558, 1561, 1560
 992, 1627,  873,  874, 1630, 1558,  850,  851, 1561
 993,  667, 1628, 1631,  668,  644, 1559, 1562,  645
 994, 1628, 1629, 1632, 1631, 1559, 1560, 1563, 1562
 995, 1629, 1630, 1633, 1632, 1560, 1561, 1564, 1563
 996, 1630,  874,  875, 1633, 1561,  851,  852, 1564
 997,  668, 1631, 1634,  669,  645, 1562, 1565,  646
 998, 1631, 1632, 1635, 1634, 1562, 1563, 1566, 1565
 999, 1632, 1633, 1636, 1635, 1563, 1564, 1567, 1566
1000, 1633,  875,  876, 1636, 1564,  852,  853, 1567
1001,  669, 1634, 1637,  670,  646, 1565, 1568,  647
1002, 1634, 1635, 1638, 1637, 1565, 1566, 1569, 1568
1003, 1635, 1636, 1639, 1638, 1566, 1567, 1570, 1569
1004, 1636,  876,  877, 1639, 1567,  853,  854, 1570
1005,  670, 1637, 1640,  671,  647, 1568, 1571,  648
1006, 1637, 1638, 1641, 1640, 1568, 1569, 1572, 1571
1007, 1638, 1639, 1642, 1641, 1569, 1570, 1573, 1572
1008, 1639,  877,  878, 1642, 1570,  854,  855, 1573
1009,  671, 1640, 1643,  672,  648, 1571, 1574,  649
1010, 1640, 1641, 1644, 1643, 1571, 1572, 1575, 1574
1011, 1641, 1642, 1645, 1644, 1572, 1573, 1576, 1575
1012, 1642,  878,  879, 1645, 1573,  855,  856, 1576
1013,  672, 1643, 1646,  673,  649, 1574, 1577,  650
1014, 1643, 1644, 1647, 1646, 1574, 1575, 1578, 1577
1015, 1644, 1645, 1648, 1647, 1575, 1576, 1579, 1578
1016, 1645,  879,  880, 1648, 1576,  856,  857, 1579
1017,  673, 1646, 1649,  674,  650, 1577, 1580,  651
1018, 1646, 1647, 1650, 1649, 1577, 1578, 1581, 1580
1019, 1647, 1648, 1651, 1650, 1578, 1579, 1582, 1581
1020, 1648,  880,  881, 1651, 1579,  857,  858, 1582
1021,  674, 1649, 1652,  675,  651, 1580, 1583,  652
1022, 1649, 1650, 1653, 1652, 1580, 1581, 1584, 1583
1023, 1650, 1651, 1654, 1653, 1581, 1582, 1585, 1584
1024, 1651,  881,  882, 1654, 1582,  858,  859, 1585
1025,  675, 1652, 1655,  676,  652, 1583, 1586,  653
1026, 1652, 1653, 1656, 1655, 1583, 1584, 1587, 1586
1027, 1653, 1654, 1657, 1656, 1584, 1585, 1588, 1587
1028, 1654,  882,  883, 1657, 1585,  859,  860, 1588
1029,  676, 1655,  935,  192,  653, 1586,  932,  191
1030, 1655, 1656,  936,  935, 1586, 1587,  933,  932
1031, 1656, 1657,  937,  936, 1587, 1588,  934,  933
1032, 1657,  883,  202,  937, 1588,  860,  203,  934
1033,   22,  134,  401,  161,  193,  908, 1589,  654
1034,  134,  133,  402,  401,  908,  909, 1590, 1589
1035,  133,  132,  403,  402,  909,  910, 1591, 1590
1036,  132,   19,  157,  403,  910,  219,  861, 1591
1037,  161,  401,  404,  162,  654, 1589, 1592,  655
1038,  401,  402,  405,  404, 1589, 1590, 1593, 1592
1039,  402,  403,  406,  405, 1590, 1591, 1594, 1593
1040,  403,  157,  156,  406, 1591,  861,  862, 1594
1041,  162,  404,  407,  163,  655, 1592, 1595,  656
1042,  404,  405,  408,  407, 1592, 1593, 1596, 1595
1043,  405,  406,  409,  408, 1593, 1594, 1597, 1596
1044,  406,  156,  155,  409, 1594,  862,  863, 1597
1045,  163,  407,  410,  164,  656, 1595, 1598,  657
1046,  407,  408,  411,  410, 1595, 1596, 1599, 1598
1047,  408,  409,  412,  411, 1596, 1597, 1600, 1599
1048,  409,  155,  154,  412, 1597,  863,  864, 1600
1049,  164,  410,  413,  165,  657, 1598, 1601,  658
1050,  410,  411,  414,  413, 1598, 1599, 1602, 1601
1051,  411,  412,  415,  414, 1599, 1600, 1603, 1602
1052,  412,  154,  153,  415, 1600,  864,  865, 1603
1053,  165,  413,  416,  166,  658, 1601, 1604,  659
1054,  413,  414,  417,  416, 1601, 1602, 1605, 1604
1055,  414,  415,  418,  417, 1602, 1603, 1606, 1605
1056,  415,  153,  152,  418, 1603,  865,  866, 1606
1057,  166,  416,  419,  167,  659, 1604, 1607,  660
1058,  416,  417,  420,  419, 1604, 1605, 1608, 1607
1059,  417,  418,  421,  420, 1605, 1606, 1609, 1608
1060,  418,  152,  151,  421, 1606,  866,  867, 1609
1061,  167,  419,  422,  168,  660, 1607, 1610,  661
1062,  419,  420,  423,  422, 1607, 1608, 1611, 1610
1063,  420,  421,  424,  423, 1608, 1609, 1612, 1611
1064,  421,  151,  150,  424, 1609,  867,  868, 1612
1065,  168,  422,  425,  169,  661, 1610, 1613,  662
1066,  422,  423,  426,  425, 1610, 1611, 1614, 1613
1067,  423,  424,  427,  426, 1611, 1612, 1615, 1614
1068,  424,  150,  149,  427, 1612,  868,  869, 1615
1069,  169,  425,  428,  170,  662, 1613, 1616,  663
1070,  425,  426,  429,  428, 1613, 1614, 1617, 1616
1071,  426,  427,  430,  429, 1614, 1615, 1618, 1617
1072,  427,  149,  148,  430, 1615,  869,  870, 1618
1073,  170,  428,  431,  171,  663, 1616, 1619,  664
1074,  428,  429,  432,  431, 1616, 1617, 1620, 1619
1075,  429,  430,  433,  432, 1617, 1618, 1621, 1620
1076,  430,  148,  147,  433, 1618,  870,  871, 1621
1077,  171,  431,  434,  172,  664, 1619, 1622,  665
1078,  431,  432,  435,  434, 1619, 1620, 1623, 1622
1079,  432,  433,  436,  435, 1620, 1621, 1624, 1623
1080,  433,  147,  146,  436, 1621,  871,  872, 1624
1081,  172,  434,  437,  173,  665, 1622, 1625,  666
1082,  434,  435,  438,  437, 1622, 1623, 1626, 1625
1083,  435,  436,  439,  438, 1623, 1624, 1627, 1626
1084,  436,  146,  145,  439, 1624,  872,  873, 1627
1085,  173,  437,  440,  174,  666, 1625, 1628,  667
1086,  437,  438,  441,  440, 1625, 1626, 1629, 1628
1087,  438,  439,  442,  441, 1626, 1627, 1630, 1629
1088,  439,  145,  144,  442, 1627,  873,  874, 1630
1089,  174,  440,  443,  175,  667, 1628, 1631,  668
1090,  440,  441,  444,  443, 1628, 1629, 1632, 1631
1091,  441,  442,  445,  444, 1629, 1630, 1633, 1632
1092,  442,  144,  143,  445, 1630,  874,  875, 1633
1093,  175,  443,  446,  176,  668, 1631, 1634,  669
1094,  443,  444,  447,  446, 1631, 1632, 1635, 1634
1095,  444,  445,  448,  447, 1632, 1633, 1636, 1635
1096,  445,  143,  142,  448, 1633,  875,  876, 1636
1097,  176,  446,  449,  177,  669, 1634, 1637,  670
1098,  446,  447,  450,  449, 1634, 1635, 1638, 1637
1099,  447,  448,  451,  450, 1635, 1636, 1639, 1638
1100,  448,  142,  141,  451, 1636,  876,  877, 1639
1101,  177,  449,  452,  178,  670, 1637, 1640,  671
1102,  449,  450,  453,  452, 1637, 1638, 1641, 1640
1103,  450,  451,  454,  453, 1638, 1639, 1642, 1641
1104,  451,  141,  140,  454, 1639,  877,  878, 1642
1105,  178,  452,  455,  179,  671, 1640, 1643,  672
1106,  452,  453,  456,  455, 1640, 1641, 1644, 1643
1107,  453,  454,  457,  456, 1641, 1642, 1645, 1644
1108,  454,  140,  139,  457, 1642,  878,  879, 1645
1109,  179,  455,  458,  180,  672, 1643, 1646,  673
1110,  455,  456,  459,  458, 1643, 1644, 1647, 1646
1111,  456,  457,  460,  459, 1644, 1645, 1648, 1647
1112,  457,  139,  138,  460, 1645,  879,  880, 1648
1113,  180,  458,  461,  181,  673, 1646, 1649,  674
1114,  458,  459,  462,  461, 1646, 1647, 1650, 1649
1115,  459,  460,  463,  462, 1647, 1648, 1651, 1650
1116,  460,  138,  137,  463, 1648,  880,  881, 1651
1117,  181,  461,  464,  182,  674, 1649, 1652,  675
1118,  461,  462,  465,  464, 1649, 1650, 1653, 1652
1119,  462,  463,  466,  465, 1650, 1651, 1654, 1653
1120,  463,  137,  136,  466, 1651,  881,  882, 1654
1121,  182,  464,  467,  183,  675, 1652, 1655,  676
1122,  464,  465,  468,  467, 1652, 1653, 1656, 1655
1123,  465,  466,  469,  468, 1653, 1654, 1657, 1656
1124,  466,  136,  135,  469, 1654,  882,  883, 1657
1125,  183,  467,  158,   21,  676, 1655,  935,  192
1126,  467,  468,  159,  158, 1655, 1656,  936,  935
1127,  468,  469,  160,  159, 1656, 1657,  937,  936
1128,  469,  135,   20,  160, 1657,  883,  202,  937
1129,  113,  368, 1658,  947,   17,  107,  938,  228
1130,  368,  369, 1659, 1658,  107,  108,  939,  938
1131,  369,  370, 1660, 1659,  108,  109,  940,  939
1132,  370,  110,  953, 1660,  109,   18,  220,  940
1133,  947, 1658, 1661,  948,  228,  938,  941,  227
1134, 1658, 1659, 1662, 1661,  938,  939,  942,  941
1135, 1659, 1660, 1663, 1662,  939,  940,  943,  942
1136, 1660,  953,  954, 1663,  940,  220,  221,  943
1137,  948, 1661, 1664,  949,  227,  941,  944,  226
1138, 1661, 1662, 1665, 1664,  941,  942,  945,  944
1139, 1662, 1663, 1666, 1665,  942,  943,  946,  945
1140, 1663,  954,  955, 1666,  943,  221,  222,  946
1141,  949, 1664,  959,  229,  226,  944,  225,   24
1142, 1664, 1665,  960,  959,  944,  945,  224,  225
1143, 1665, 1666,  961,  960,  945,  946,  223,  224
1144, 1666,  955,  232,  961,  946,  222,   23,  223
1145,  112,  371, 1667,  950,  113,  368, 1658,  947
1146,  371,  372, 1668, 1667,  368,  369, 1659, 1658
1147,  372,  373, 1669, 1668,  369,  370, 1660, 1659
1148,  373,  111,  956, 1669,  370,  110,  953, 1660
1149,  950, 1667, 1670,  951,  947, 1658, 1661,  948
1150, 1667, 1668, 1671, 1670, 1658, 1659, 1662, 1661
1151, 1668, 1669, 1672, 1671, 1659, 1660, 1663, 1662
1152, 1669,  956,  957, 1672, 1660,  953,  954, 1663
1153,  951, 1670, 1673,  952,  948, 1661, 1664,  949
1154, 1670, 1671, 1674, 1673, 1661, 1662, 1665, 1664
1155, 1671, 1672, 1675, 1674, 1662, 1663, 1666, 1665
1156, 1672,  957,  958, 1675, 1663,  954,  955, 1666
1157,  952, 1673,  962,  230,  949, 1664,  959,  229
1158, 1673, 1674,  963,  962, 1664, 1665,  960,  959
1159, 1674, 1675,  964,  963, 1665, 1666,  961,  960
1160, 1675,  958,  231,  964, 1666,  955,  232,  961
1161,    1,   33,  242,   28,  112,  371, 1667,  950
1162,   33,   32,  245,  242,  371,  372, 1668, 1667
1163,   32,   31,  249,  245,  372,  373, 1669, 1668
1164,   31,    5,   47,  249,  373,  111,  956, 1669
1165,   28,  242,  243,   29,  950, 1667, 1670,  951
1166,  242,  245,  246,  243, 1667, 1668, 1671, 1670
1167,  245,  249,  250,  246, 1668, 1669, 1672, 1671
1168,  249,   47,   46,  250, 1669,  956,  957, 1672
1169,   29,  243,  244,   30,  951, 1670, 1673,  952
1170,  243,  246,  247,  244, 1670, 1671, 1674, 1673
1171,  246,  250,  248,  247, 1671, 1672, 1675, 1674
1172,  250,   46,   45,  248, 1672,  957,  958, 1675
1173,   30,  244,   39,    2,  952, 1673,  962,  230
1174,  244,  247,   40,   39, 1673, 1674,  963,  962
1175,  247,  248,   41,   40, 1674, 1675,  964,  963
1176,  248,   45,    4,   41, 1675,  958,  231,  964
*Nset, nset=All, generate
    1,  1675,     1
*Elset, elset=All, generate
    1,  1176,     1
** Section: Plastic
*Solid Section, elset=All, controls=EC-1, material=Duracon
1.,
*End Part
**  
**
** ASSEMBLY
**
*Assembly, name=Assembly
**  
*Instance, name=Clip-1, part=Clip
*End Instance
**  
*Instance, name=Holder-1, part=Holder
*End Instance
**  
*Nset, nset=Fix, instance=Holder-1
   9,  10,  12,  13,  17,  18,  19,  20,  21,  22,  23,  24,  61,  62,  63,  71
  72,  73,  76,  77,  78,  82,  83,  84, 107, 108, 109, 132, 133, 134, 135, 136
 137, 138, 139, 140, 141, 142, 143, 144, 145, 146, 147, 148, 149, 150, 151, 152
 153, 154, 155, 156, 157, 158, 159, 160, 161, 162, 163, 164, 165, 166, 167, 168
 169, 170, 171, 172, 173, 174, 175, 176, 177, 178, 179, 180, 181, 182, 183, 184
 185, 186, 187, 188, 189, 190, 191, 192, 193, 194, 195, 196, 197, 198, 199, 200
 201, 202, 203, 204, 205, 206, 207, 208, 209, 210, 211, 212, 213, 214, 215, 216
 217, 218, 219, 220, 221, 222, 223, 224, 225, 226, 227, 228, 317, 318, 319, 320
 321, 322, 323, 324, 325, 401, 402, 403, 404, 405, 406, 407, 408, 409, 410, 411
 412, 413, 414, 415, 416, 417, 418, 419, 420, 421, 422, 423, 424, 425, 426, 427
 428, 429, 430, 431, 432, 433, 434, 435, 436, 437, 438, 439, 440, 441, 442, 443
 444, 445, 446, 447, 448, 449, 450, 451, 452, 453, 454, 455, 456, 457, 458, 459
 460, 461, 462, 463, 464, 465, 466, 467, 468, 469, 884, 885, 886, 887, 888, 889
 890, 891, 892, 893, 894, 895, 896, 897, 898, 899, 900, 901, 902, 903, 904, 905
 906, 907, 908, 909, 910, 911, 912, 913, 914, 915, 916, 917, 918, 919, 920, 921
 922, 923, 924, 925, 926, 927, 928, 929, 930, 931, 932, 933, 934, 935, 936, 937
 938, 939, 940, 941, 942, 943, 944, 945, 946
*Elset, elset=Fix, instance=Holder-1
   69,   70,   71,   72,   81,   82,   83,   84,   93,   94,   95,   96,  105,  106,  107,  108
  169,  170,  171,  172,  261,  262,  263,  264,  265,  266,  267,  268,  357,  358,  359,  360
  361,  362,  363,  364,  453,  454,  455,  456,  457,  458,  459,  460,  549,  550,  551,  552
  553,  554,  555,  556,  645,  646,  647,  648,  649,  650,  651,  652,  741,  742,  743,  744
  745,  746,  747,  748,  837,  838,  839,  840,  841,  842,  843,  844,  933,  934,  935,  936
  937,  938,  939,  940, 1029, 1030, 1031, 1032, 1033, 1034, 1035, 1036, 1037, 1038, 1039, 1040
 1041, 1042, 1043, 1044, 1045, 1046, 1047, 1048, 1049, 1050, 1051, 1052, 1053, 1054, 1055, 1056
 1057, 1058, 1059, 1060, 1061, 1062, 1063, 1064, 1065, 1066, 1067, 1068, 1069, 1070, 1071, 1072
 1073, 1074, 1075, 1076, 1077, 1078, 1079, 1080, 1081, 1082, 1083, 1084, 1085, 1086, 1087, 1088
 1089, 1090, 1091, 1092, 1093, 1094, 1095, 1096, 1097, 1098, 1099, 1100, 1101, 1102, 1103, 1104
 1105, 1106, 1107, 1108, 1109, 1110, 1111, 1112, 1113, 1114, 1115, 1116, 1117, 1118, 1119, 1120
 1121, 1122, 1123, 1124, 1125, 1126, 1127, 1128, 1129, 1130, 1131, 1132, 1133, 1134, 1135, 1136
 1137, 1138, 1139, 1140, 1141, 1142, 1143, 1144
*Nset, nset=Push, instance=Clip-1
   18,   19,   20,   21,   22,   23,   25,   26,   29,   30,   31,   32,   33,   34,   35,   36
   37,   38,   39,   40,   41,   42,   43,   44,  232,  233,  234,  235,  236,  237,  238,  239
  240,  241,  242,  243,  244,  245,  246,  247,  264,  265,  266,  267,  268,  269,  270,  271
  272,  273,  274,  275,  276,  277,  278,  279,  289,  290,  291,  295,  296,  297,  298,  299
  300,  311,  312,  313,  321,  322,  323,  324,  325,  326,  367,  368,  369,  384,  385,  386
  387,  388,  389,  390,  391,  392,  402,  403,  404,  405,  406,  407,  408,  418,  419,  420
  421,  422,  423,  424,  425,  426,  427,  428,  429,  430,  431,  432,  433,  434,  435,  436
  437,  438,  439,  440,  441,  442,  443,  444,  445,  446,  447,  448,  449,  450,  451,  452
  453,  454,  455,  456,  457,  468,  469,  470,  471,  472,  473,  474,  475,  476,  477,  488
  489,  490,  491,  492,  493,  494,  495,  496,  497,  498,  499,  500,  501,  502,  503,  504
  505,  506,  507,  508,  509,  510,  511,  512,  513,  514,  515,  516,  517,  518,  519,  520
  521,  522,  523,  524,  525,  526,  527,  528,  529,  530,  531,  532,  533,  534,  535,  536
  537,  538,  539,  560,  561,  562,  563,  564,  565,  566,  567,  568,  569,  570,  571,  572
  573,  574,  575,  576,  577,  578,  579,  580,  581,  582,  583,  584,  585,  586,  587,  588
  589,  590,  591,  592,  593,  594,  595,  596, 1368, 1369, 1370, 1371, 1372, 1373, 1374, 1375
 1376, 1377, 1378, 1379, 1380, 1381, 1382, 1383, 1384, 1385, 1386, 1387, 1388, 1389, 1390, 1391
 1392, 1393, 1394, 1416, 1417, 1418, 1419, 1420, 1421, 1422, 1423, 1424, 1425, 1426, 1427, 1428
 1429, 1430, 1431, 1432, 1433, 1434, 1435, 1436, 1509, 1510, 1511, 1512, 1513, 1514, 1515, 1516
 1517, 1632, 1633, 1634, 1635, 1636, 1637, 1638, 1639, 1640, 1809, 1810, 1811, 1812, 1813, 1814
 1815, 1816, 1817, 1818, 1819, 1820, 1821, 1822, 1823, 1824, 1825, 1826, 1827, 1828, 1829, 1857
 1858, 1859, 1860, 1861, 1862, 1863, 1864, 1865, 1866, 1867, 1868, 1869, 1870, 1871, 1872, 1873
 1874, 1875, 1876, 1877, 2048, 2049, 2050, 2051, 2052, 2053, 2054, 2055, 2056, 2057, 2058, 2059
 2060, 2061, 2062, 2063, 2064, 2065, 2066, 2067, 2068, 2069, 2070, 2071, 2072, 2073, 2074, 2075
 2076, 2077, 2204, 2205, 2206, 2207, 2208, 2209, 2210, 2211, 2212, 2213, 2214, 2215, 2216, 2217
 2218, 2219, 2220, 2221, 2222, 2223, 2224, 2225, 2226, 2227, 2228, 2229, 2230, 2231, 2232, 2233
 2234, 2235, 2236, 2237, 2238, 2239, 2240, 2241, 2242, 2243, 2244, 2245, 2246, 2247, 2248, 2249
 2250, 2251, 2252, 2253, 2254, 2255, 2256, 2257, 2258, 2259, 2260, 2261, 2262, 2263, 2264, 2265
 2266, 2267, 2268, 2269, 2270, 2271, 2272, 2443, 2444, 2445, 2446, 2447, 2448, 2449, 2450, 2451
 2452, 2453, 2454, 2455, 2456, 2457, 2458, 2459, 2460, 2461, 2462, 2463, 2604, 2605, 2606, 2607
 2608, 2609, 2610, 2611, 2612, 2613, 2614, 2615, 2616, 2617, 2618, 2619, 2620, 2621, 2622, 2623
 2624, 2625, 2626, 2627, 2628, 2629, 2630, 2631, 2632, 2633
*Nset, nset=refnode, instance=Clip-1
9999
*Elset, elset=Push, instance=Clip-1
  904,  912,  920,  928,  936,  944,  952,  960,  968,  969,  970,  971,  972,  973,  974,  975
  976,  984,  992, 1000, 1008, 1016, 1024, 1032, 1040, 1048, 1049, 1050, 1051, 1052, 1053, 1054
 1055, 1056, 1064, 1072, 1080, 1088, 1096, 1104, 1112, 1120, 1128, 1129, 1130, 1131, 1132, 1133
 1134, 1135, 1136, 1144, 1152, 1160, 1168, 1176, 1184, 1192, 1200, 1208, 1209, 1210, 1211, 1212
 1213, 1214, 1215, 1216, 1245, 1246, 1247, 1248, 1277, 1278, 1279, 1280, 1309, 1310, 1311, 1312
 1341, 1342, 1343, 1344, 1473, 1481, 1489, 1497, 1505, 1513, 1521, 1529, 1537, 1545, 1553, 1561
 1569, 1577, 1585, 1593, 1610, 1620, 1630, 1640, 1650, 1660, 1670, 1680, 1690, 1700, 1710, 1720
 1730, 1740, 1750, 1760, 1770, 1780, 1790, 1800, 1810, 1820, 1830, 1840, 1850, 1860, 1870, 1880
 1890, 1900, 1910, 1920, 1949, 1950, 1951, 1952, 1981, 1982, 1983, 1984, 2013, 2014, 2015, 2016
 2045, 2046, 2047, 2048, 2077, 2078, 2079, 2080, 2109, 2110, 2111, 2112, 2141, 2142, 2143, 2144
 2173, 2174, 2175, 2176, 2205, 2206, 2207, 2208, 2237, 2238, 2239, 2240, 2241, 2242, 2243, 2244
 2245, 2246, 2247, 2248, 2249, 2250, 2251, 2252, 2253, 2254, 2255, 2256, 2257, 2258, 2259, 2260
 2261, 2262, 2263, 2264, 2265, 2266, 2267, 2268, 2269, 2270, 2271, 2272, 2282, 2292, 2302, 2312
 2322, 2332, 2342, 2343, 2344, 2345, 2346, 2347, 2348, 2349, 2350, 2351, 2352, 2362, 2372, 2382
 2392, 2402, 2412, 2422, 2423, 2424, 2425, 2426, 2427, 2428, 2429, 2430, 2431, 2432, 2442, 2452
 2462, 2472, 2482, 2492, 2502, 2503, 2504, 2505, 2506, 2507, 2508, 2509, 2510, 2511, 2512, 2522
 2532, 2542, 2552, 2562, 2572, 2582, 2583, 2584, 2585, 2586, 2587, 2588, 2589, 2590, 2591, 2592
 2593, 2594, 2595, 2596, 2597, 2598, 2599, 2600, 2601, 2602, 2603, 2604, 2605, 2606, 2607, 2608
 2609, 2610, 2611, 2612, 2613, 2614, 2615, 2616, 2617, 2618, 2619, 2620, 2621, 2622, 2623, 2624
 2945, 2946, 2947, 2948, 2949, 2950, 2951, 2952, 2953, 2954, 2955, 2956, 2957, 2958, 2959, 2960
 2961, 2962, 2963, 2964, 2965, 2966, 2967, 2968, 2969, 2970, 2971, 2972, 2973, 2974, 2975, 2976
 3005, 3006, 3007, 3008, 3037, 3038, 3039, 3040, 3069, 3070, 3071, 3072, 3101, 3102, 3103, 3104
 3133, 3134, 3135, 3136, 3165, 3166, 3167, 3168, 3197, 3198, 3199, 3200, 3229, 3230, 3231, 3232
 3261, 3262, 3263, 3264, 3293, 3294, 3295, 3296
*Elset, elset=__Int-1_gcs0_80_S3, internal, instance=Holder-1
 109, 110, 111, 112, 113, 114, 139, 140, 141, 142, 143, 144
*Elset, elset=__Int-1_gcs0_80_S4, internal, instance=Holder-1
 133, 134, 135, 136, 137, 138, 163, 164, 165, 166, 167, 168
*Surface, type=ELEMENT, name=_Int-1_gcs0_80, internal
__Int-1_gcs0_80_S3, S3
__Int-1_gcs0_80_S4, S4
*Elset, elset=__Int-1_gcs0_81_S4, internal, instance=Holder-1
 19, 20, 21, 22, 23, 24, 31, 32, 33, 34, 35, 36
*Elset, elset=__Int-1_gcs0_81_S3, internal, instance=Holder-1, generate
 25,  30,   1
*Elset, elset=__Int-1_gcs0_81_S2, internal, instance=Holder-1, generate
 55,  60,   1
*Surface, type=ELEMENT, name=_Int-1_gcs0_81, internal
__Int-1_gcs0_81_S4, S4
__Int-1_gcs0_81_S3, S3
__Int-1_gcs0_81_S2, S2
*kinematic coupling,ref node=refnode
Push,1,3
*End Assembly
** 
** ELEMENT CONTROLS
** 
*Section Controls, name=EC-1, hourglass=ENHANCED
1., 1., 1.
** 
** MATERIALS
** 
*Material, name=Duracon
*Elastic
1567., 0.45
** 
** INTERACTION PROPERTIES
** 
*Surface Interaction, name=IntProp-1
1.,
*Friction, slip tolerance=0.005
 0.1,
*Surface Behavior, penalty
** 
** INTERACTIONS
** 
** Interaction: Int-1
*Contact
*Contact Inclusions, ALL EXTERIOR
*Contact Property Assignment
 ,  , IntProp-1
*Surface Property Assignment, property=GEOMETRIC CORRECTION
_Int-1_gcs0_80, Circumferential, -2., -1.77636e-15, 4.25,  -1., -1.83828e-15, 4.25
_Int-1_gcs0_81, Circumferential, -2., -8.88178e-16, -4.25,  -1., -9.501e-16, -4.25
** ----------------------------------------------------------------
** 
** STEP: Step-1
** 
*Step, name=Step-1, nlgeom=YES, inc=10000, unsymm=YES
***Static, stabilize=0.000002, allsdtol=0.0, continue=NO
*Static
0.1, 1., 1e-05, 0.1
***contact controls, stabilize=1.e-4
** 
** BOUNDARY CONDITIONS
** 
** Name: Fix Type: Displacement/Rotation
*Boundary
Fix, 1, 1
Fix, 2, 2
Fix, 3, 3
** Name: push Type: Displacement/Rotation
*Boundary
refnode, 1, 1, 7.
refnode, 2, 6
** 
** OUTPUT REQUESTS
** 
*Restart, write, frequency=0
** 
** FIELD OUTPUT: F-Output-2
** 
*Output, field
*Contact Output
CFORCE, CSTRESSETOS
** 
** FIELD OUTPUT: F-Output-1
** 
*Output, field, variable=PRESELECT
** 
** HISTORY OUTPUT: H-Output-1
** 
*Output, history
*energy output
ETOTAL,ALLAE,ALLIE,ALLWK,ALLFD,
ALLCCE,ALLCCEN,ALLCCET,ALLCCDW
*node output,nset=refnode
rf1
*energy print
*End Step

